27
Coordinates from ORCA-job opt E -867.508827221023
  C           0.08169306504435     -1.40309458289106     -1.78012459555702
  C           0.14990676373400     -0.74826234836025     -0.41235787229768
  O           0.95861200309933      0.45066507838433     -0.54365756824734
  P           2.44468452114897      0.54832534621363      0.02422253491255
  C           2.75429331611292      2.29495255708291      0.12412148761693
  O           2.76039355105125     -0.30305182390954      1.19565024839185
  F           3.32552895149688      0.10927439349452     -1.24396481569776
  C          -1.19248982957318     -0.34808306422000      0.23831084506181
  C          -0.90009501857830      0.34446184740045      1.57786012264397
  C          -2.00462848683494     -1.62279109302404      0.50775594049471
  C          -1.98733119081594      0.60239428769761     -0.66539650749561
  H           1.09609545054097     -1.66375249682971     -2.11439454119766
  H          -0.36220534592289     -0.72698706153379     -2.52490407131164
  H          -0.51035869515605     -2.32787344908978     -1.74583363949674
  H           0.66947563485579     -1.42209914361695      0.28972701909211
  H           3.82161015833498      2.45629600544789      0.32649294643060
  H           2.47269946217510      2.77794036806241     -0.82048272994314
  H           2.15880960371832      2.70956169347010      0.94861564080639
  H          -1.83846406709278      0.54182310026978      2.11865645320291
  H          -0.26278985792551     -0.28446235721434      2.22029909962805
  H          -0.38775926445331      1.30682617457393      1.43098986562537
  H          -1.43311484212138     -2.33536195228113      1.12435215518326
  H          -2.29646509246954     -2.13265329005925     -0.42265218482108
  H          -2.92819195873081     -1.37275459607812      1.05226899767982
  H          -2.30127044326439      0.11308065170958     -1.60007741014572
  H          -1.39123499943469      1.49051365714715     -0.92595655817168
  H          -2.89740338893917      0.94511207815369     -0.14880291238727
