27
Coordinates from ORCA-job opt E -867.498007273155
  C       0.206146     -1.651052     -1.506795
  C       0.249668     -0.581566     -0.415108
  O       0.871678      0.575583     -0.973895
  P       2.460044      0.790420     -0.755741
  C       2.584570      1.530018      0.858490
  O       3.263792     -0.467258     -0.910098
  F       2.817854      1.807581     -1.897950
  C      -1.147656     -0.188980      0.160376
  C      -0.966892      0.891050      1.248233
  C      -1.833617     -1.406589      0.807137
  C      -2.076128      0.387514     -0.925809
  H       1.217510     -1.880585     -1.858178
  H      -0.343927     -1.304763     -2.387399
  H      -0.238775     -2.583911     -1.151738
  H       0.870320     -0.957338      0.408472
  H       3.622787      1.800319      1.069671
  H       1.978695      2.438359      0.912936
  H       2.246401      0.838604      1.634524
  H      -1.926111      1.153984      1.709112
  H      -0.303608      0.539231      2.046070
  H      -0.541964      1.812325      0.835838
  H      -1.184321     -1.873257      1.556178
  H      -2.096706     -2.167544      0.065462
  H      -2.763146     -1.115035      1.309869
  H      -2.313082     -0.357064     -1.692573
  H      -1.625388      1.253024     -1.423191
  H      -3.028144      0.716929     -0.493175
27
Coordinates from ORCA-job opt E -867.503921911022
  C       0.166283     -1.667084     -1.509497
  C       0.215443     -0.619095     -0.405816
  O       0.861848      0.557248     -0.926584
  P       2.445966      0.767030     -0.704107
  C       2.622116      1.626425      0.843731
  O       3.271537     -0.469486     -0.837742
  F       2.754328      1.777224     -1.872514
  C      -1.158773     -0.202352      0.160290
  C      -0.942712      0.847950      1.262824
  C      -1.850612     -1.426582      0.775111
  C      -2.050959      0.401592     -0.934405
  H       1.186661     -1.905605     -1.841655
  H      -0.378719     -1.294326     -2.389523
  H      -0.302761     -2.599406     -1.166743
  H       0.815658     -1.021657      0.429615
  H       3.673421      1.903731      1.006449
  H       2.009937      2.539357      0.856137
  H       2.300836      0.968866      1.661433
  H      -1.900780      1.131371      1.724298
  H      -0.288965      0.458522      2.060555
  H      -0.482934      1.763901      0.862211
  H      -1.205478     -1.916433      1.522858
  H      -2.117433     -2.174265      0.012712
  H      -2.781294     -1.127746      1.279840
  H      -2.294924     -0.334404     -1.716203
  H      -1.565555      1.263570     -1.417321
  H      -3.002136      0.751653     -0.505236
27
Coordinates from ORCA-job opt E -867.506214695952
  C       0.179569     -1.667252     -1.516117
  C       0.188281     -0.640879     -0.397504
  O       0.861762      0.549074     -0.880327
  P       2.441509      0.738058     -0.668721
  C       2.681572      1.671660      0.824352
  O       3.274971     -0.479265     -0.821844
  F       2.694606      1.786334     -1.829162
  C      -1.184351     -0.208398      0.159907
  C      -0.957001      0.826444      1.268966
  C      -1.877918     -1.435082      0.764174
  C      -2.060538      0.404312     -0.938717
  H       1.216723     -1.897960     -1.801786
  H      -0.343309     -1.281537     -2.404726
  H      -0.301912     -2.602029     -1.196796
  H       0.770570     -1.051608      0.449546
  H       3.742980      1.938141      0.933215
  H       2.069072      2.584962      0.820934
  H       2.380788      1.030217      1.665539
  H      -1.916360      1.109589      1.731588
  H      -0.304140      0.423406      2.062751
  H      -0.490463      1.741390      0.873435
  H      -1.235050     -1.932984      1.510457
  H      -2.149017     -2.177546     -0.002635
  H      -2.806146     -1.127391      1.271769
  H      -2.312498     -0.329238     -1.721167
  H      -1.556723      1.258218     -1.418849
  H      -3.006974      0.769363     -0.507562
27
Coordinates from ORCA-job opt E -867.506431676136
  C       0.176698     -1.664222     -1.519615
  C       0.184927     -0.649748     -0.390404
  O       0.867388      0.542677     -0.862050
  P       2.444954      0.727220     -0.657787
  C       2.697966      1.699193      0.809397
  O       3.274552     -0.492256     -0.792903
  F       2.694515      1.770529     -1.831166
  C      -1.188307     -0.213552      0.164648
  C      -0.962373      0.813693      1.282339
  C      -1.890426     -1.443922      0.755435
  C      -2.055637      0.408673     -0.935969
  H       1.213648     -1.897412     -1.798758
  H      -0.341743     -1.268175     -2.405301
  H      -0.312142     -2.598092     -1.209703
  H       0.762019     -1.066466      0.455785
  H       3.761289      1.958869      0.900843
  H       2.088561      2.612077      0.782896
  H       2.400243      1.081074      1.668735
  H      -1.922288      1.092883      1.744164
  H      -0.312291      0.404570      2.073454
  H      -0.494677      1.730715      0.895172
  H      -1.257530     -1.945248      1.506030
  H      -2.152834     -2.182049     -0.017587
  H      -2.823820     -1.138032      1.253082
  H      -2.305631     -0.320127     -1.722287
  H      -1.544812      1.261487     -1.408777
  H      -3.002248      0.775642     -0.508955
27
Coordinates from ORCA-job opt E -867.506552098451
  C       0.170472     -1.660160     -1.532806
  C       0.183522     -0.662802     -0.387645
  O       0.875556      0.531561     -0.842979
  P       2.450037      0.712976     -0.638377
  C       2.702408      1.740005      0.792938
  O       3.270893     -0.515772     -0.725973
  F       2.716362      1.725517     -1.842406
  C      -1.188806     -0.222255      0.168704
  C      -0.958556      0.793499      1.296722
  C      -1.902453     -1.453296      0.746782
  C      -2.050837      0.416596     -0.927608
  H       1.205850     -1.898967     -1.810679
  H      -0.342336     -1.247222     -2.413136
  H      -0.328397     -2.593152     -1.237474
  H       0.756709     -1.090738      0.454114
  H       3.767612      1.993226      0.873186
  H       2.097736      2.652734      0.723322
  H       2.400270      1.162528      1.678188
  H      -1.916836      1.070675      1.761966
  H      -0.309502      0.374146      2.082342
  H      -0.488049      1.712498      0.918727
  H      -1.278981     -1.961124      1.499910
  H      -2.160718     -2.185327     -0.032650
  H      -2.838947     -1.146768      1.237222
  H      -2.306171     -0.304565     -1.718442
  H      -1.532407      1.267784     -1.393891
  H      -2.994431      0.788406     -0.499342
27
Coordinates from ORCA-job opt E -867.506693441692
  C       0.157157     -1.651650     -1.556752
  C       0.181430     -0.680859     -0.388774
  O       0.888421      0.514288     -0.818719
  P       2.458920      0.689654     -0.601423
  C       2.699152      1.806389      0.765349
  O       3.261957     -0.553994     -0.595518
  F       2.767870      1.628251     -1.860517
  C      -1.187061     -0.235112      0.173805
  C      -0.947483      0.760328      1.318511
  C      -1.914889     -1.467127      0.732605
  C      -2.043916      0.430349     -0.911323
  H       1.189208     -1.901448     -1.836903
  H      -0.346267     -1.210892     -2.428526
  H      -0.358107     -2.582570     -1.284234
  H       0.749715     -1.130341      0.443911
  H       3.766386      2.052746      0.839063
  H       2.103730      2.716109      0.620529
  H       2.381961      1.298348      1.686608
  H      -1.902290      1.034000      1.792412
  H      -0.297514      0.324089      2.093863
  H      -0.473838      1.683240      0.954814
  H      -1.300960     -1.988148      1.484234
  H      -2.172770     -2.187740     -0.057300
  H      -2.852697     -1.159726      1.219522
  H      -2.310727     -0.277369     -1.710244
  H      -1.515820      1.280558     -1.367985
  H      -2.981568      0.808627     -0.476290
27
Coordinates from ORCA-job opt E -867.506593735885
  C       0.122173     -1.615593     -1.625318
  C       0.175708     -0.730887     -0.390752
  O       0.926371      0.463241     -0.741093
  P       2.481432      0.626353     -0.473026
  C       2.687326      1.996753      0.654041
  O       3.214900     -0.623111     -0.164348
  F       2.937473      1.302627     -1.867410
  C      -1.182095     -0.274191      0.190371
  C      -0.918293      0.653534      1.387289
  C      -1.951498     -1.508623      0.685959
  C      -2.021708      0.473153     -0.856040
  H       1.143416     -1.897049     -1.915105
  H      -0.349725     -1.091568     -2.467076
  H      -0.441358     -2.536463     -1.424257
  H       0.728026     -1.244845      0.411501
  H       3.761083      2.216627      0.719759
  H       2.132201      2.862031      0.272204
  H       2.316432      1.725671      1.650565
  H      -1.863933      0.913326      1.885753
  H      -0.267636      0.164999      2.129916
  H      -0.434534      1.588325      1.071762
  H      -1.365603     -2.072686      1.428312
  H      -2.209085     -2.190392     -0.137452
  H      -2.892182     -1.200070      1.165472
  H      -2.320462     -0.189432     -1.681586
  H      -1.466180      1.322457     -1.279720
  H      -2.942250      0.865812     -0.399000
27
Coordinates from ORCA-job opt E -867.506624866996
  C       0.129509     -1.641287     -1.595876
  C       0.180257     -0.713335     -0.394365
  O       0.914429      0.475268     -0.783968
  P       2.475047      0.652913     -0.530785
  C       2.665195      1.924317      0.706780
  O       3.238544     -0.604542     -0.334831
  F       2.898904      1.423728     -1.876796
  C      -1.177679     -0.257647      0.180834
  C      -0.916053      0.693190      1.358756
  C      -1.933506     -1.487022      0.702098
  C      -2.024333      0.464248     -0.876030
  H       1.153071     -1.915283     -1.891655
  H      -0.357614     -1.153031     -2.452254
  H      -0.414471     -2.566349     -1.360301
  H       0.742813     -1.201154      0.419502
  H       3.734276      2.170571      0.782520
  H       2.087591      2.810800      0.409548
  H       2.312203      1.559171      1.679783
  H      -1.863433      0.969128      1.847620
  H      -0.270561      0.217402      2.116585
  H      -0.426010      1.619787      1.025571
  H      -1.329761     -2.045555      1.436790
  H      -2.209200     -2.176689     -0.110415
  H      -2.864037     -1.174599      1.200678
  H      -2.314581     -0.211833     -1.695569
  H      -1.479467      1.317012     -1.309651
  H      -2.951133      0.850790     -0.423852
27
Coordinates from ORCA-job opt E -867.506761618605
  C       0.165313     -1.640306     -1.548916
  C       0.174039     -0.681905     -0.371531
  O       0.883175      0.519335     -0.772396
  P       2.459359      0.682272     -0.590797
  C       2.731235      1.836455      0.737957
  O       3.244130     -0.574956     -0.564365
  F       2.772257      1.572547     -1.883508
  C      -1.198927     -0.243145      0.179728
  C      -0.970285      0.738327      1.338218
  C      -1.934527     -1.478934      0.714816
  C      -2.039397      0.437145     -0.907926
  H       1.201388     -1.885735     -1.824564
  H      -0.329577     -1.192427     -2.422973
  H      -0.348263     -2.576905     -1.292197
  H       0.737231     -1.141819      0.460400
  H       3.798386      2.097521      0.764666
  H       2.124101      2.739627      0.586456
  H       2.455280      1.356272      1.687132
  H      -1.929812      1.008578      1.806203
  H      -0.328146      0.292023      2.115837
  H      -0.491206      1.665498      0.989996
  H      -1.330139     -2.008791      1.469574
  H      -2.183276     -2.191302     -0.086479
  H      -2.878665     -1.174942      1.193089
  H      -2.301541     -0.260608     -1.718678
  H      -1.501607      1.290263     -1.349735
  H      -2.980527      0.815914     -0.479286
27
Coordinates from ORCA-job opt E -867.506849275894
  C       0.152998     -1.632497     -1.573161
  C       0.173271     -0.700308     -0.374221
  O       0.897242      0.501538     -0.751935
  P       2.468364      0.660211     -0.550423
  C       2.726000      1.896686      0.706634
  O       3.240210     -0.598174     -0.430935
  F       2.816180      1.480298     -1.885665
  C      -1.196290     -0.254359      0.184485
  C      -0.957208      0.707163      1.358378
  C      -1.946424     -1.490734      0.701709
  C      -2.032394      0.451299     -0.891669
  H       1.184977     -1.888035     -1.849047
  H      -0.333456     -1.158919     -2.437262
  H      -0.376838     -2.565151     -1.336930
  H       0.729324     -1.180188      0.449245
  H       3.794647      2.147779      0.732735
  H       2.128112      2.788710      0.482341
  H       2.429993      1.484050      1.680621
  H      -1.912830      0.974435      1.834326
  H      -0.315005      0.244511      2.124853
  H      -0.474274      1.636327      1.023956
  H      -1.352356     -2.033172      1.454166
  H      -2.195069     -2.191742     -0.108551
  H      -2.891052     -1.184935      1.176319
  H      -2.305013     -0.232931     -1.709023
  H      -1.485867      1.302413     -1.324197
  H      -2.967241      0.835725     -0.456031
27
Coordinates from ORCA-job opt E -867.506869470624
  C       0.149534     -1.631147     -1.577532
  C       0.174520     -0.702303     -0.376187
  O       0.900835      0.497893     -0.752525
  P       2.471276      0.658061     -0.546909
  C       2.719293      1.901336      0.705715
  O       3.241132     -0.601044     -0.415388
  F       2.830425      1.467953     -1.884959
  C      -1.193892     -0.255197      0.184357
  C      -0.952500      0.705135      1.358731
  C      -1.944610     -1.490567      0.702351
  C      -2.032026      0.451947     -0.889281
  H       1.180159     -1.891147     -1.855362
  H      -0.334657     -1.152534     -2.440335
  H      -0.384778     -2.562158     -1.344313
  H       0.729834     -1.186133      0.445150
  H       3.787961      2.152966      0.739542
  H       2.123846      2.791886      0.468130
  H       2.412724      1.497809      1.679970
  H      -1.907350      0.973830      1.835743
  H      -0.310273      0.240956      2.124712
  H      -0.468350      1.633755      1.024534
  H      -1.348982     -2.035447      1.452188
  H      -2.197507     -2.190141     -0.108097
  H      -2.887078     -1.183800      1.180786
  H      -2.306250     -0.231372     -1.707076
  H      -1.486855      1.304088     -1.321755
  H      -2.966432      0.835376     -0.451473
27
Coordinates from ORCA-job opt E -867.506896205444
  C       0.150330     -1.622793     -1.580720
  C       0.173430     -0.703605     -0.372117
  O       0.902329      0.497887     -0.736458
  P       2.474251      0.652816     -0.539921
  C       2.727503      1.912764      0.695112
  O       3.236809     -0.609419     -0.392885
  F       2.837715      1.441384     -1.888938
  C      -1.196048     -0.258358      0.186845
  C      -0.957346      0.698063      1.364903
  C      -1.948158     -1.494956      0.699153
  C      -2.032074      0.452352     -0.885955
  H       1.181338     -1.886216     -1.855648
  H      -0.326952     -1.135214     -2.442457
  H      -0.389751     -2.553070     -1.357704
  H       0.725409     -1.194977      0.446913
  H       3.796776      2.162999      0.725454
  H       2.134284      2.801113      0.442164
  H       2.417022      1.526772      1.675156
  H      -1.913251      0.964277      1.841496
  H      -0.315639      0.231870      2.130437
  H      -0.473449      1.628369      1.034594
  H      -1.355585     -2.041029      1.450880
  H      -2.197145     -2.193452     -0.113684
  H      -2.893045     -1.189638      1.173998
  H      -2.305917     -0.228663     -1.706086
  H      -1.485861      1.305588     -1.315458
  H      -2.966975      0.835136     -0.448358
27
Coordinates from ORCA-job opt E -867.506946330076
  C       0.153974     -1.612253     -1.581443
  C       0.171781     -0.705765     -0.363161
  O       0.903686      0.498673     -0.707069
  P       2.478857      0.644976     -0.530432
  C       2.741425      1.933856      0.672081
  O       3.231425     -0.620515     -0.358523
  F       2.843373      1.395635     -1.898672
  C      -1.200159     -0.263461      0.191563
  C      -0.966463      0.682328      1.379065
  C      -1.957148     -1.502695      0.689221
  C      -2.028794      0.458059     -0.879651
  H       1.185755     -1.879849     -1.850285
  H      -0.312728     -1.113325     -2.442573
  H      -0.393686     -2.541608     -1.372935
  H       0.717310     -1.207626      0.453927
  H       3.810441      2.185844      0.695121
  H       2.148463      2.815908      0.395859
  H       2.427185      1.574912      1.661169
  H      -1.924615      0.944898      1.853454
  H      -0.328539      0.209089      2.143678
  H      -0.479941      1.615008      1.059350
  H      -1.372320     -2.053370      1.443861
  H      -2.198633     -2.196958     -0.129686
  H      -2.906622     -1.199691      1.156599
  H      -2.301620     -0.215720     -1.706240
  H      -1.477976      1.312935     -1.300335
  H      -2.964431      0.840714     -0.443223
27
Coordinates from ORCA-job opt E -867.507014020190
  C       0.158634     -1.604962     -1.579026
  C       0.170351     -0.708499     -0.353249
  O       0.904944      0.498348     -0.679291
  P       2.483022      0.636813     -0.520377
  C       2.752720      1.959220      0.642665
  O       3.227246     -0.628972     -0.317419
  F       2.847245      1.342875     -1.910340
  C      -1.204115     -0.268486      0.197103
  C      -0.975194      0.661865      1.397680
  C      -1.969097     -1.510687      0.674292
  C      -2.021604      0.469200     -0.871512
  H       1.191502     -1.873062     -1.843361
  H      -0.301766     -1.098526     -2.439253
  H      -0.392208     -2.534765     -1.381414
  H       0.709810     -1.218554      0.462977
  H       3.820725      2.215131      0.657857
  H       2.157849      2.832166      0.342081
  H       2.436938      1.627941      1.640973
  H      -1.935830      0.922551      1.868136
  H      -0.345020      0.176561      2.161120
  H      -0.481641      1.595960      1.093188
  H      -1.393207     -2.070975      1.428725
  H      -2.205257     -2.195999     -0.153658
  H      -2.921948     -1.209449      1.136046
  H      -2.291759     -0.193221     -1.708169
  H      -1.463803      1.326430     -1.277950
  H      -2.958537      0.851099     -0.437108
27
Coordinates from ORCA-job opt E -867.507170845501
  C       0.165119     -1.599494     -1.573414
  C       0.168856     -0.713835     -0.339629
  O       0.907652      0.494994     -0.644160
  P       2.489246      0.623710     -0.501894
  C       2.759563      2.003685      0.589631
  O       3.222650     -0.636562     -0.237836
  F       2.858128      1.247983     -1.926060
  C      -1.208245     -0.275522      0.205858
  C      -0.983521      0.624206      1.430318
  C      -1.988770     -1.521765      0.645517
  C      -2.005363      0.494536     -0.854985
  H       1.199551     -1.864851     -1.833730
  H      -0.291245     -1.086535     -2.432078
  H      -0.385678     -2.531378     -1.386842
  H       0.700337     -1.233579      0.476172
  H       3.824833      2.268842      0.599049
  H       2.161260      2.857870      0.245372
  H       2.437024      1.717010      1.599814
  H      -1.947103      0.886564      1.893660
  H      -0.370751      0.112688      2.190487
  H      -0.471996      1.557592      1.154671
  H      -1.425507     -2.104899      1.391930
  H      -2.223746     -2.185562     -0.199914
  H      -2.942911     -1.222056      1.105683
  H      -2.270235     -0.143948     -1.711656
  H      -1.434704      1.356396     -1.232269
  H      -2.944444      0.873912     -0.422980
27
Coordinates from ORCA-job opt E -867.507341130003
  C       0.165116     -1.596169     -1.576643
  C       0.166672     -0.718804     -0.336862
  O       0.911965      0.489308     -0.627591
  P       2.495124      0.606931     -0.467939
  C       2.749437      2.055001      0.531176
  O       3.210436     -0.639225     -0.110711
  F       2.896554      1.120881     -1.923636
  C      -1.209122     -0.281037      0.212964
  C      -0.979065      0.583287      1.461592
  C      -2.003090     -1.531392      0.616022
  C      -1.989924      0.524712     -0.832745
  H       1.200233     -1.854875     -1.839372
  H      -0.295388     -1.079877     -2.431338
  H      -0.380263     -2.531862     -1.395339
  H       0.694294     -1.247263      0.476553
  H       3.811985      2.326839      0.555252
  H       2.158688      2.885932      0.124457
  H       2.401079      1.820757      1.546956
  H      -1.941771      0.851070      1.923215
  H      -0.383399      0.040432      2.212890
  H      -0.446217      1.512904      1.215088
  H      -1.443667     -2.143841      1.341081
  H      -2.249906     -2.165729     -0.247951
  H      -2.950971     -1.233957      1.090295
  H      -2.251025     -0.084827     -1.711169
  H      -1.407924      1.392116     -1.177525
  H      -2.929852      0.898688     -0.398004
27
Coordinates from ORCA-job opt E -867.507472976857
  C       0.172109     -1.575386     -1.577984
  C       0.163632     -0.724402     -0.320096
  O       0.916892      0.486307     -0.570705
  P       2.503801      0.587657     -0.425217
  C       2.761116      2.111769      0.449279
  O       3.198563     -0.636670      0.032761
  F       2.920694      0.966358     -1.913993
  C      -1.215079     -0.291471      0.225574
  C      -0.992067      0.531166      1.503216
  C      -2.024340     -1.546633      0.579162
  C      -1.972903      0.553473     -0.805436
  H       1.208882     -1.834535     -1.834713
  H      -0.276955     -1.040110     -2.427282
  H      -0.379056     -2.512234     -1.422123
  H       0.679520     -1.274136      0.487072
  H       3.821453      2.391261      0.463790
  H       2.173134      2.906106     -0.029076
  H       2.396609      1.956977      1.474861
  H      -1.958040      0.795629      1.960120
  H      -0.412856     -0.041760      2.244983
  H      -0.444184      1.461022      1.293033
  H      -1.479200     -2.186504      1.291342
  H      -2.266681     -2.152214     -0.306544
  H      -2.975082     -1.255040      1.051680
  H      -2.226906     -0.025049     -1.706754
  H      -1.377555      1.425590     -1.113999
  H      -2.915500      0.922831     -0.372231
27
Coordinates from ORCA-job opt E -867.507183690298
  C       0.131826     -1.551572     -1.644964
  C       0.152177     -0.715242     -0.378482
  O       0.920031      0.488562     -0.642818
  P       2.488168      0.562090     -0.315832
  C       2.724754      2.157131      0.417215
  O       3.082347     -0.623106      0.336471
  F       3.074008      0.740862     -1.784766
  C      -1.205939     -0.289105      0.218936
  C      -0.936075      0.520504      1.494813
  C      -1.988787     -1.558163      0.586366
  C      -2.000545      0.557413     -0.780313
  H       1.163845     -1.795032     -1.934881
  H      -0.346796     -1.010770     -2.474993
  H      -0.401953     -2.497634     -1.484942
  H       0.689578     -1.278503      0.406108
  H       3.787704      2.385657      0.559341
  H       2.256163      2.938522     -0.192907
  H       2.231693      2.094206      1.399375
  H      -1.883999      0.781087      1.989855
  H      -0.329501     -0.059940      2.207853
  H      -0.398306      1.453598      1.272224
  H      -1.390031     -2.220547      1.231395
  H      -2.293533     -2.131808     -0.301060
  H      -2.901572     -1.285484      1.138313
  H      -2.265409     -0.010668     -1.684816
  H      -1.422525      1.441519     -1.088395
  H      -2.937324      0.906423     -0.318376
27
Coordinates from ORCA-job opt E -867.507614818865
  C       0.177479     -1.490137     -1.615766
  C       0.151973     -0.719790     -0.307847
  O       0.921637      0.496736     -0.465742
  P       2.511741      0.550246     -0.294917
  C       2.803556      2.196507      0.297258
  O       3.136643     -0.602862      0.390946
  F       2.987849      0.626035     -1.809544
  C      -1.230563     -0.312241      0.245772
  C      -1.017718      0.452981      1.559483
  C      -2.036047     -1.585796      0.536793
  C      -1.980258      0.572980     -0.755450
  H       1.216057     -1.750624     -1.868357
  H      -0.244911     -0.897843     -2.441109
  H      -0.388533     -2.427545     -1.530860
  H       0.653969     -1.324835      0.468466
  H       3.872151      2.441671      0.323096
  H       2.276451      2.915614     -0.344431
  H       2.376650      2.234780      1.310230
  H      -1.987234      0.681564      2.028971
  H      -0.426767     -0.143336      2.273616
  H      -0.486394      1.400923      1.390134
  H      -1.491661     -2.254988      1.222621
  H      -2.269589     -2.152888     -0.376790
  H      -2.991511     -1.319822      1.015720
  H      -2.228524      0.029669     -1.680346
  H      -1.381232      1.455744     -1.027263
  H      -2.925215      0.927256     -0.313967
27
Coordinates from ORCA-job opt E -867.507735211067
  C       0.162160     -1.545997     -1.606681
  C       0.162713     -0.730574     -0.325069
  O       0.923253      0.482193     -0.546816
  P       2.506940      0.575727     -0.377125
  C       2.766079      2.142694      0.421594
  O       3.176032     -0.629996      0.166561
  F       2.968017      0.871679     -1.874970
  C      -1.213909     -0.302275      0.228586
  C      -0.989774      0.514039      1.510014
  C      -2.019483     -1.560535      0.580378
  C      -1.980567      0.548371     -0.791504
  H       1.191998     -1.832050     -1.862749
  H      -0.257726     -0.973252     -2.446048
  H      -0.420821     -2.469204     -1.485712
  H       0.675247     -1.305599      0.465639
  H       3.834366      2.391466      0.445023
  H       2.213528      2.918608     -0.125366
  H       2.368050      2.071451      1.443168
  H      -1.954465      0.751015      1.984781
  H      -0.383365     -0.048974      2.238075
  H      -0.471902      1.460484      1.298427
  H      -1.475481     -2.198154      1.295783
  H      -2.254182     -2.168190     -0.306410
  H      -2.974935     -1.274264      1.046565
  H      -2.251977     -0.031159     -1.687058
  H      -1.385472      1.416859     -1.112318
  H      -2.914323      0.925636     -0.346051
27
Coordinates from ORCA-job opt E -867.507935764783
  C       0.167100     -1.484608     -1.633422
  C       0.153367     -0.724045     -0.319100
  O       0.923510      0.492572     -0.479814
  P       2.508530      0.551089     -0.289849
  C       2.799349      2.191907      0.324695
  O       3.125825     -0.604949      0.401532
  F       3.012406      0.646744     -1.799545
  C      -1.226245     -0.315297      0.240452
  C      -1.007968      0.466845      1.543827
  C      -2.025965     -1.586891      0.555854
  C      -1.991364      0.557171     -0.761171
  H       1.198072     -1.772220     -1.886163
  H      -0.232081     -0.872808     -2.455571
  H      -0.426390     -2.406204     -1.561789
  H       0.657782     -1.333621      0.451213
  H       3.873747      2.412259      0.352288
  H       2.287596      2.917622     -0.321877
  H       2.371989      2.245291      1.335825
  H      -1.974012      0.676822      2.028699
  H      -0.390463     -0.108167      2.253031
  H      -0.504254      1.426388      1.357205
  H      -1.480406     -2.239171      1.256842
  H      -2.253026     -2.173418     -0.347048
  H      -2.985092     -1.318071      1.025201
  H      -2.261984     -0.002652     -1.669703
  H      -1.394782      1.431844     -1.062652
  H      -2.925244      0.925565     -0.308242
27
Coordinates from ORCA-job opt E -867.508194971078
  C       0.160781     -1.406264     -1.680736
  C       0.142601     -0.711368     -0.331331
  O       0.921316      0.507790     -0.436439
  P       2.496441      0.532774     -0.160255
  C       2.829242      2.236417      0.207053
  O       3.019704     -0.522379      0.737810
  F       3.097922      0.358405     -1.628851
  C      -1.235422     -0.329738      0.248941
  C      -1.011317      0.413034      1.574287
  C      -2.019366     -1.618880      0.531916
  C      -2.014932      0.564015     -0.721175
  H       1.189575     -1.699132     -1.939926
  H      -0.217100     -0.746427     -2.475837
  H      -0.447891     -2.320603     -1.663863
  H       0.647475     -1.356491      0.409021
  H       3.911002      2.407869      0.275719
  H       2.400761      2.877289     -0.575091
  H       2.349053      2.460482      1.170052
  H      -1.973193      0.586835      2.081420
  H      -0.370620     -0.173033      2.253410
  H      -0.530175      1.388819      1.412572
  H      -1.457722     -2.286789      1.205044
  H      -2.249888     -2.178688     -0.386959
  H      -2.975872     -1.375571      1.020314
  H      -2.293485      0.025980     -1.640679
  H      -1.423903      1.447996     -1.007034
  H      -2.944986      0.917659     -0.248666
27
Coordinates from ORCA-job opt E -867.508381506628
  C       0.120793     -1.371774     -1.746370
  C       0.134969     -0.707068     -0.382566
  O       0.921396      0.510948     -0.494684
  P       2.459410      0.535951     -0.055703
  C       2.827419      2.256171      0.173060
  O       2.858074     -0.427741      0.995013
  F       3.208114      0.192024     -1.430286
  C      -1.226328     -0.336762      0.241185
  C      -0.964132      0.399550      1.563625
  C      -1.989980     -1.634570      0.540786
  C      -2.043409      0.554425     -0.699363
  H       1.142362     -1.662121     -2.036445
  H      -0.268565     -0.688547     -2.516060
  H      -0.493106     -2.282767     -1.739772
  H       0.657177     -1.364119      0.333806
  H       3.905703      2.371681      0.347303
  H       2.525678      2.838200     -0.707355
  H       2.275090      2.595296      1.060546
  H      -1.909494      0.563301      2.104050
  H      -0.297284     -0.187639      2.216456
  H      -0.494953      1.380097      1.393829
  H      -1.393670     -2.305438      1.180523
  H      -2.253869     -2.183669     -0.375562
  H      -2.926762     -1.405241      1.072201
  H      -2.343327      0.018727     -1.613730
  H      -1.468482      1.445510     -0.996113
  H      -2.962824      0.895578     -0.197656
27
Coordinates from ORCA-job opt E -867.508598626699
  C       0.094789     -1.336183     -1.791260
  C       0.136443     -0.710906     -0.409432
  O       0.928759      0.506308     -0.508021
  P       2.426600      0.551111      0.046000
  C       2.829081      2.278948      0.093229
  O       2.712705     -0.280548      1.237694
  F       3.278305      0.024936     -1.210454
  C      -1.215081     -0.350859      0.242334
  C      -0.934212      0.353846      1.578517
  C      -1.979784     -1.652806      0.521944
  C      -2.043515      0.565618     -0.664191
  H       1.109068     -1.619488     -2.108663
  H      -0.305286     -0.627772     -2.531577
  H      -0.524119     -2.243928     -1.800717
  H       0.663755     -1.387106      0.284204
  H       3.893335      2.375975      0.347744
  H       2.629389      2.752397     -0.876205
  H       2.223480      2.748280      0.880529
  H      -1.872166      0.509579      2.133556
  H      -0.262772     -0.251262      2.209531
  H      -0.461868      1.335521      1.426771
  H      -1.377764     -2.339481      1.138828
  H      -2.256087     -2.179468     -0.403763
  H      -2.909518     -1.433725      1.069288
  H      -2.354852      0.053744     -1.587860
  H      -1.472005      1.464099     -0.944391
  H      -2.956680      0.893170     -0.142916
27
Coordinates from ORCA-job opt E -867.508757339821
  C       0.087557     -1.379746     -1.776967
  C       0.148542     -0.735728     -0.404072
  O       0.946934      0.473755     -0.525322
  P       2.445064      0.549614      0.013451
  C       2.785165      2.290814      0.119058
  O       2.771274     -0.311164      1.175559
  F       3.298984      0.107358     -1.273991
  C      -1.201077     -0.351107      0.242133
  C      -0.922800      0.350093      1.580805
  C      -1.997552     -1.634951      0.515527
  C      -2.006518      0.584450     -0.667759
  H       1.099538     -1.657392     -2.103233
  H      -0.332179     -0.685581     -2.519085
  H      -0.525046     -2.291672     -1.761182
  H       0.668623     -1.407750      0.299007
  H       3.851280      2.415588      0.352893
  H       2.548605      2.780877     -0.833839
  H       2.180305      2.724204      0.926604
  H      -1.865773      0.538963      2.116437
  H      -0.283786     -0.272244      2.227803
  H      -0.416024      1.314983      1.434242
  H      -1.421918     -2.332475      1.145190
  H      -2.272060     -2.158886     -0.412268
  H      -2.930582     -1.393296      1.047223
  H      -2.314996      0.083649     -1.598043
  H      -1.420653      1.477313     -0.934978
  H      -2.920907      0.920329     -0.154474
27
Coordinates from ORCA-job opt E -867.508798313162
  C       0.084574     -1.387209     -1.782222
  C       0.149578     -0.741367     -0.409980
  O       0.951735      0.464304     -0.534318
  P       2.440095      0.552598      0.029321
  C       2.771482      2.296742      0.105304
  O       2.748048     -0.285094      1.212785
  F       3.316433      0.085554     -1.233157
  C      -1.196498     -0.351837      0.241179
  C      -0.909865      0.337350      1.583826
  C      -2.001306     -1.632030      0.507454
  C      -1.996944      0.597141     -0.659569
  H       1.097743     -1.654553     -2.113855
  H      -0.348178     -0.699044     -2.522364
  H      -0.517771     -2.305554     -1.760041
  H       0.669921     -1.414422      0.292074
  H       3.833477      2.437436      0.347861
  H       2.540246      2.766412     -0.859122
  H       2.154163      2.739772      0.898181
  H      -1.850659      0.533581      2.120540
  H      -0.277336     -0.295577      2.227040
  H      -0.393470      1.298149      1.442702
  H      -1.425742     -2.341647      1.123525
  H      -2.289795     -2.142869     -0.423315
  H      -2.926586     -1.388318      1.051723
  H      -2.307122      0.108655     -1.595752
  H      -1.406438      1.489987     -0.916355
  H      -2.909786      0.931844     -0.142750
27
Coordinates from ORCA-job opt E -867.508818014433
  C       0.086395     -1.405296     -1.775363
  C       0.150039     -0.747432     -0.408655
  O       0.956262      0.452957     -0.539572
  P       2.446582      0.549117      0.018072
  C       2.754800      2.295984      0.118153
  O       2.771072     -0.304450      1.185220
  F       3.318422      0.112008     -1.256460
  C      -1.194103     -0.348151      0.239541
  C      -0.903983      0.339882      1.581684
  C      -2.007631     -1.622865      0.504496
  C      -1.986074      0.606023     -0.663107
  H       1.102344     -1.664175     -2.106587
  H      -0.357808     -0.730438     -2.521052
  H      -0.504083     -2.330891     -1.740958
  H       0.669054     -1.417571      0.297421
  H       3.817954      2.458556      0.340275
  H       2.491688      2.776652     -0.832910
  H       2.144222      2.712147      0.930766
  H      -1.844231      0.542345      2.117190
  H      -0.274853     -0.295019      2.226504
  H      -0.384236      1.298962      1.439327
  H      -1.435103     -2.339735      1.115147
  H      -2.305096     -2.127608     -0.426883
  H      -2.927961     -1.373504      1.054863
  H      -2.295019      0.121599     -1.601988
  H      -1.389783      1.496220     -0.915756
  H      -2.898871      0.944684     -0.148650
27
Coordinates from ORCA-job opt E -867.508826665948
  C       0.082257     -1.404045     -1.778455
  C       0.150087     -0.748233     -0.411204
  O       0.958323      0.450768     -0.543020
  P       2.444384      0.549838      0.024749
  C       2.754101      2.296994      0.115976
  O       2.759789     -0.296110      1.199993
  F       3.325179      0.103932     -1.241031
  C      -1.192425     -0.348526      0.239536
  C      -0.900726      0.339023      1.581793
  C      -2.006045     -1.623342      0.503539
  C      -1.985240      0.605973     -0.661734
  H       1.097322     -1.661861     -2.113078
  H      -0.364688     -0.728890     -2.522280
  H      -0.507554     -2.330179     -1.742867
  H       0.669757     -1.420651      0.292234
  H       3.817607      2.459204      0.336979
  H       2.491060      2.772937     -0.837516
  H       2.144693      2.718555      0.926670
  H      -1.840071      0.538268      2.120201
  H      -0.267626     -0.294071      2.224321
  H      -0.385027      1.300219      1.438920
  H      -1.433909     -2.340627      1.114113
  H      -2.302433     -2.127242     -0.428723
  H      -2.927038     -1.374553      1.053049
  H      -2.295339      0.121820     -1.600413
  H      -1.389089      1.496128     -0.914943
  H      -2.897352      0.944670     -0.146089
27
Coordinates from ORCA-job opt E -867.508826626297
  C       0.081090     -1.403703     -1.779948
  C       0.149959     -0.748790     -0.412305
  O       0.958853      0.449884     -0.543850
  P       2.444277      0.549057      0.025137
  C       2.753641      2.296079      0.120733
  O       2.759207     -0.299164      1.199001
  F       3.326309      0.106906     -1.241343
  C      -1.192074     -0.348484      0.238866
  C      -0.899348      0.342120      1.579334
  C      -2.005270     -1.623008      0.505979
  C      -1.986080      0.603875     -0.663546
  H       1.095718     -1.662073     -2.115265
  H      -0.365505     -0.728273     -2.523735
  H      -0.509128     -2.329616     -1.744570
  H       0.669683     -1.422410      0.289934
  H       3.818798      2.457509      0.334358
  H       2.483256      2.775155     -0.829130
  H       2.150042      2.715017      0.937089
  H      -1.837908      0.540173      2.119609
  H      -0.263179     -0.288084      2.221572
  H      -0.386300      1.304324      1.433619
  H      -1.433511     -2.338240      1.119322
  H      -2.299882     -2.129606     -0.425345
  H      -2.927322     -1.373346      1.053265
  H      -2.298316      0.117019     -1.600086
  H      -1.389990      1.492968     -0.920747
  H      -2.897020      0.944709     -0.147229
27
Coordinates from ORCA-job opt E -867.508829398828
  C       0.081405     -1.403329     -1.779918
  C       0.149873     -0.748355     -0.412249
  O       0.958754      0.450412     -0.543695
  P       2.444693      0.548515      0.024293
  C       2.754354      2.295210      0.123394
  O       2.760368     -0.302223      1.196192
  F       3.325686      0.108919     -1.243708
  C      -1.192430     -0.348132      0.238515
  C      -0.900030      0.344009      1.578268
  C      -2.004773     -1.622874      0.507197
  C      -1.987116      0.602751     -0.664886
  H       1.095867     -1.663167     -2.114606
  H      -0.363503     -0.727722     -2.524549
  H      -0.509868     -2.328604     -1.745029
  H       0.669567     -1.422264      0.289705
  H       3.821090      2.456387      0.329050
  H       2.476057      2.777355     -0.822616
  H       2.156636      2.711031      0.945657
  H      -1.838410      0.540964      2.119236
  H      -0.262352     -0.284750      2.220455
  H      -0.388341      1.306740      1.431537
  H      -1.433276     -2.336205      1.122953
  H      -2.297054     -2.131724     -0.423629
  H      -2.928121     -1.373102      1.052205
  H      -2.300604      0.114008     -1.600007
  H      -1.391065      1.491137     -0.924681
  H      -2.897406      0.945010     -0.148363
27
Coordinates from ORCA-job opt E -867.508827221023
  C       0.081693     -1.403095     -1.780125
  C       0.149907     -0.748262     -0.412358
  O       0.958612      0.450665     -0.543658
  P       2.444685      0.548325      0.024223
  C       2.754293      2.294953      0.124121
  O       2.760394     -0.303052      1.195650
  F       3.325529      0.109274     -1.243965
  C      -1.192490     -0.348083      0.238311
  C      -0.900095      0.344462      1.577860
  C      -2.004628     -1.622791      0.507756
  C      -1.987331      0.602394     -0.665397
  H       1.096095     -1.663752     -2.114395
  H      -0.362205     -0.726987     -2.524904
  H      -0.510359     -2.327873     -1.745834
  H       0.669476     -1.422099      0.289727
  H       3.821610      2.456296      0.326493
  H       2.472699      2.777940     -0.820483
  H       2.158810      2.709562      0.948616
  H      -1.838464      0.541823      2.118656
  H      -0.262790     -0.284462      2.220299
  H      -0.387759      1.306826      1.430990
  H      -1.433115     -2.335362      1.124352
  H      -2.296465     -2.132653     -0.422652
  H      -2.928192     -1.372755      1.052269
  H      -2.301270      0.113081     -1.600077
  H      -1.391235      1.490514     -0.925957
  H      -2.897403      0.945112     -0.148803
