27
Soman C1S_P3S q=0
C      0.42269787    -1.59798612     1.38825298
C      0.30148570    -0.56809980     0.26481301
O      0.98840629     0.60976240     0.68779388
P      2.52752915     0.82045351     0.23683690
C      2.41414664     1.50217212    -1.40348653
O      3.35448433    -0.42898182     0.31836422
F      3.03754666     1.87864514     1.27962001
C     -1.16672781    -0.19967060    -0.11784384
C     -1.93443334     0.41305526     1.06933695
C     -1.92907719    -1.44125058    -0.61655725
C     -1.15164681     0.84121847    -1.25753479
H      0.00179050    -1.22175200     2.32593386
H      1.47563669    -1.81240913     1.59886054
H     -0.06148611    -2.54399396     1.13353718
H      0.80063875    -0.97158562    -0.62554791
H      1.79994129     2.40654067    -1.40231420
H      3.40938660     1.76722581    -1.77063562
H      1.97354723     0.78265499    -2.09833116
H     -2.94102168     0.72450685     0.76635412
H     -2.05358783    -0.30420226     1.88775817
H     -1.42363339     1.29687344     1.46634026
H     -2.07758714    -2.17583735     0.18136359
H     -1.39021916    -1.93284251    -1.43411196
H     -2.92315344    -1.17006946    -0.99077807
H     -0.60679049     0.46269751    -2.12938328
H     -0.67897009     1.77765648    -0.94282650
H     -2.16890320     1.08521856    -1.58509659
