27
Soman C1R_P3R q=0
C      0.20614582    -1.65105250    -1.50679474
C      0.24966800    -0.58156563    -0.41510824
O      0.87167756     0.57558326    -0.97389471
P      2.46004357     0.79042019    -0.75574146
C      2.58457050     1.53001790     0.85848999
O      3.26379220    -0.46725769    -0.91009777
F      2.81785375     1.80758069    -1.89795018
C     -1.14765612    -0.18898009     0.16037578
C     -0.96689235     0.89104987     1.24823337
C     -1.83361704    -1.40658884     0.80713667
C     -2.07612823     0.38751393    -0.92580940
H      1.21750967    -1.88058533    -1.85817769
H     -0.34392709    -1.30476256    -2.38739883
H     -0.23877475    -2.58391105    -1.15173789
H      0.87032010    -0.95733759     0.40847178
H      3.62278729     1.80031887     1.06967091
H      1.97869538     2.43835944     0.91293632
H      2.24640138     0.83860421     1.63452433
H     -1.92611051     1.15398363     1.70911228
H     -0.30360766     0.53923115     2.04607028
H     -0.54196431     1.81232481     0.83583750
H     -1.18432146    -1.87325692     1.55617768
H     -2.09670559    -2.16754403     0.06546209
H     -2.76314629    -1.11503461     1.30986873
H     -2.31308211    -0.35706420    -1.69257299
H     -1.62538793     1.25302427    -1.42319115
H     -3.02814378     0.71692880    -0.49317471
