27
Soman C1R_P3S q=0
C      0.17632711    -1.90739833    -0.97736868
C      0.08210886    -0.73583582    -0.00209475
O      1.07254221     0.21594560    -0.39186768
P      2.42236976     0.29901740     0.49465847
C      3.39021862     1.52509323    -0.35350494
O      3.10435377    -1.02733367     0.65728519
F      1.88523287     0.80689133     1.88072568
C     -1.30990643    -0.03542826     0.05260672
C     -1.25543123     1.11560800     1.08049361
C     -2.40180399    -1.02489165     0.49851461
C     -1.70640385     0.56463635    -1.30968903
H      1.18346099    -2.33822673    -0.95259656
H      0.01255283    -1.58589522    -2.01068750
H     -0.53194058    -2.70340318    -0.73436665
H      0.31920533    -1.11209552     1.00180820
H      2.83428910     2.46302104    -0.43649053
H      4.31662438     1.72360851     0.19205593
H      3.64777367     1.18615320    -1.36063394
H     -2.23156373     1.60393410     1.18122514
H     -0.96695792     0.74533580     2.07068963
H     -0.53402455     1.88601370     0.78687195
H     -2.13547462    -1.50558851     1.44637143
H     -2.56642169    -1.81110068    -0.24530443
H     -3.36114888    -0.51473241     0.64376918
H     -1.83354161    -0.21129038    -2.07146839
H     -0.95438613     1.27369078    -1.67217870
H     -2.65805431     1.10427137    -1.23810600
