18
Sarin P4R q=0
C     -1.84854517    -0.68834201     0.71409424
C     -1.02175314     0.05868214    -0.32164182
C     -1.62987839     1.41665640    -0.63893863
O      0.28085555     0.27499288     0.20703551
P      1.47776616    -0.64784729    -0.36789569
C      2.88158708    -0.14493393     0.59931325
O      1.17245160    -2.11538849    -0.30383173
F      1.57352570    -0.17730719    -1.86367553
H     -1.39109170    -1.65587844     0.94575582
H     -1.89568937    -0.13076163     1.65609266
H     -2.86838877    -0.86276395     0.35800067
H     -0.96486397    -0.53073714    -1.24406872
H     -2.64034445     1.31512446    -1.04627855
H     -1.01088962     1.94882268    -1.36944378
H     -1.67292333     2.04810566     0.25545304
H      2.72858414    -0.38174557     1.65575161
H      3.04576940     0.93218292     0.50723796
H      3.78382828    -0.65886151     0.25703971
