29
Coordinates from ORCA-job opt E -976.897348283929
  C          -1.37702243841660      2.34336405491086     -0.89830865271192
  C          -1.36863278520603      1.45373546066428      0.33757388990718
  N          -1.29946078307236      0.03057871867896      0.00201593902020
  C          -2.57420368255630     -0.68358051583247     -0.07376576757660
  C          -3.04619393741822     -1.20922836535452      1.27550982995477
  C          -0.11464372128854     -0.54193623308562     -0.24208888861119
  C          -0.09000875320769     -2.00605718661780     -0.60008501671828
  N           0.95758287531327      0.21275918018243     -0.16804313349980
  P           2.50072518037656     -0.14616908811355     -0.44156997085344
  O           3.03143376586030     -1.52080172842256     -0.64853596743916
  F           2.85926286196258      0.74273984089885     -1.73335945756633
  O           3.25519970449870      0.67935444447750      0.70837088445427
  C           4.67163507940161      0.57710662194945      0.83767201902608
  H          -2.22429613510060      2.09940156031954     -1.55747585067356
  H          -0.44384048817374      2.22091525375477     -1.46699590147306
  H          -1.46645124405437      3.39973978031629     -0.60492766209841
  H          -0.51236622156423      1.69690849680649      0.97985897452012
  H          -2.28213485946619      1.60422170605415      0.93092460264684
  H          -2.49414155215052     -1.49816160882479     -0.80398918899828
  H          -3.31142234368811      0.02116242471357     -0.48723287179280
  H          -3.15800269091052     -0.39273690774938      2.00485673032004
  H          -4.02338414637874     -1.70180895422246      1.16622511364995
  H          -2.33699184134693     -1.94204776577334      1.68891084885248
  H          -0.67371184512933     -2.60225844944418      0.11340304717409
  H          -0.52852879682990     -2.14903742242104     -1.59943852659742
  H           0.94290736917911     -2.36627364555393     -0.61616382327228
  H           4.94728398956717      1.07327020024221      1.77571973955342
  H           4.98535837223825     -0.47636967378135      0.87035742684644
  H           5.17404903756137      1.08120979122766     -0.00192584604335
