29
Coordinates from ORCA-job opt E -976.884055973049
  C      -1.429527      2.485290     -0.633315
  C      -1.496419      1.501986      0.524691
  N      -1.380398      0.120907      0.032888
  C      -2.651183     -0.568316     -0.191943
  C      -3.007485     -1.445640      0.997340
  C      -0.122260     -0.454969     -0.142707
  C       0.005751     -1.897381     -0.609935
  N       0.945622      0.232774      0.123623
  P       2.450188     -0.282664      0.011876
  O       2.827030     -1.573660      0.678597
  F       2.724491     -0.400840     -1.533549
  O       3.428250      0.938094      0.418560
  C       4.813672      0.682383      0.331206
  H      -2.232980      2.300130     -1.353882
  H      -0.477369      2.407583     -1.167936
  H      -1.530533      3.511241     -0.266041
  H      -0.711030      1.726276      1.255924
  H      -2.443677      1.638334      1.060876
  H      -2.625122     -1.155170     -1.115054
  H      -3.457010      0.160799     -0.344452
  H      -3.081618     -0.852091      1.914656
  H      -3.971506     -1.936229      0.830629
  H      -2.256235     -2.223423      1.164081
  H      -0.888736     -2.263016     -1.111982
  H       0.830059     -1.997515     -1.320430
  H       0.202937     -2.532282      0.258558
  H       5.355164      1.613926      0.514065
  H       5.108399     -0.050711      1.086765
  H       5.071523      0.314183     -0.665617
29
Coordinates from ORCA-job opt E -976.893187907563
  C      -1.328186      2.467225     -0.631069
  C      -1.378308      1.458025      0.510674
  N      -1.338509      0.080735      0.023274
  C      -2.623403     -0.585921     -0.173009
  C      -3.029718     -1.434207      1.027642
  C      -0.149618     -0.510071     -0.182116
  C      -0.124369     -1.943596     -0.658946
  N       0.931994      0.174328      0.076873
  P       2.452163     -0.323809     -0.021813
  O       2.880371     -1.576967      0.671216
  F       2.772812     -0.429839     -1.574656
  O       3.334542      0.957928      0.389300
  C       4.750095      0.805894      0.377601
  H      -2.176117      2.327620     -1.319072
  H      -0.399356      2.362069     -1.210603
  H      -1.372084      3.494093     -0.238214
  H      -0.546277      1.628148      1.207954
  H      -2.300180      1.596964      1.093274
  H      -2.607640     -1.188738     -1.092765
  H      -3.386290      0.185000     -0.348185
  H      -3.085695     -0.820055      1.939149
  H      -4.017706     -1.888700      0.860615
  H      -2.309197     -2.245036      1.210869
  H      -1.069195     -2.263427     -1.113763
  H       0.663729     -2.075197     -1.408693
  H       0.092206     -2.594343      0.199400
  H       5.195498      1.789523      0.569449
  H       5.070218      0.107733      1.164756
  H       5.098221      0.444623     -0.601650
29
Coordinates from ORCA-job opt E -976.894903879554
  C      -1.294381      2.468954     -0.608586
  C      -1.355088      1.439310      0.513593
  N      -1.331198      0.066137      0.017123
  C      -2.631236     -0.576065     -0.172118
  C      -3.061161     -1.421957      1.021534
  C      -0.155440     -0.529978     -0.196099
  C      -0.121293     -1.968544     -0.643400
  N       0.936026      0.160822      0.032013
  P       2.454851     -0.355270     -0.065367
  O       2.901606     -1.584872      0.646661
  F       2.785459     -0.481008     -1.627144
  O       3.298136      0.956008      0.316978
  C       4.720502      0.846591      0.382449
  H      -2.143126      2.350778     -1.301295
  H      -0.362040      2.364748     -1.184323
  H      -1.330215      3.488554     -0.195059
  H      -0.516977      1.577459      1.208240
  H      -2.279276      1.563355      1.097994
  H      -2.632285     -1.166847     -1.097600
  H      -3.361968      0.228096     -0.340352
  H      -3.092039     -0.814059      1.939606
  H      -4.065451     -1.839781      0.853633
  H      -2.367404     -2.260066      1.191468
  H      -1.064685     -2.321338     -1.068924
  H       0.663464     -2.097635     -1.400969
  H       0.132878     -2.597061      0.223677
  H       5.116328      1.854929      0.557050
  H       5.023629      0.187567      1.210374
  H       5.132386      0.461173     -0.563665
29
Coordinates from ORCA-job opt E -976.895441196280
  C      -1.309785      2.481043     -0.588257
  C      -1.367243      1.443263      0.524035
  N      -1.326627      0.067842      0.022294
  C      -2.622915     -0.583019     -0.178277
  C      -3.072524     -1.408308      1.019832
  C      -0.149516     -0.524493     -0.198778
  C      -0.111418     -1.963234     -0.639966
  N       0.951370      0.166114      0.008449
  P       2.463604     -0.380413     -0.085765
  O       2.912468     -1.599120      0.635415
  F       2.788728     -0.538718     -1.655685
  O       3.302610      0.941427      0.257930
  C       4.722335      0.844462      0.382515
  H      -2.147924      2.357003     -1.291777
  H      -0.367538      2.395059     -1.149170
  H      -1.366801      3.494779     -0.164865
  H      -0.530949      1.578663      1.220550
  H      -2.297917      1.545125      1.101734
  H      -2.598723     -1.189388     -1.093794
  H      -3.344535      0.222167     -0.376763
  H      -3.120518     -0.785868      1.926730
  H      -4.072827     -1.827819      0.838644
  H      -2.381840     -2.242932      1.213872
  H      -1.063824     -2.340380     -1.022773
  H       0.650448     -2.080489     -1.422624
  H       0.193945     -2.580645      0.218543
  H       5.098638      1.862883      0.536810
  H       4.997077      0.214871      1.241576
  H       5.172201      0.430127     -0.532943
29
Coordinates from ORCA-job opt E -976.895581807569
  C      -1.316711      2.484546     -0.580254
  C      -1.363461      1.442386      0.527362
  N      -1.327685      0.068921      0.016019
  C      -2.627562     -0.578769     -0.183878
  C      -3.071772     -1.403524      1.015302
  C      -0.150095     -0.522834     -0.209969
  C      -0.102424     -1.965076     -0.645313
  N       0.947909      0.172592     -0.002822
  P       2.458942     -0.384759     -0.077971
  O       2.903348     -1.592609      0.662055
  F       2.784455     -0.583742     -1.646786
  O       3.303668      0.941325      0.232497
  C       4.720059      0.845778      0.381028
  H      -2.157310      2.360569     -1.280065
  H      -0.376516      2.405932     -1.144843
  H      -1.376959      3.494986     -0.150285
  H      -0.517068      1.572243      1.213916
  H      -2.287292      1.540153      1.115617
  H      -2.604831     -1.185149     -1.098587
  H      -3.348360      0.227497     -0.380653
  H      -3.114182     -0.783072      1.923292
  H      -4.073545     -1.820481      0.837776
  H      -2.381377     -2.239214      1.203556
  H      -1.056012     -2.362543     -1.002526
  H       0.644148     -2.074729     -1.443033
  H       0.234311     -2.571651      0.208619
  H       5.094446      1.866375      0.522649
  H       4.980048      0.230829      1.254590
  H       5.181829      0.414018     -0.519800
29
Coordinates from ORCA-job opt E -976.895645085070
  C      -1.319259      2.484221     -0.567406
  C      -1.367646      1.440245      0.538340
  N      -1.327806      0.068664      0.021609
  C      -2.626102     -0.577994     -0.194309
  C      -3.081746     -1.400168      1.002353
  C      -0.148084     -0.521834     -0.197451
  C      -0.094839     -1.961124     -0.643809
  N       0.946595      0.179302      0.006994
  P       2.456520     -0.384986     -0.057913
  O       2.899974     -1.578378      0.705734
  F       2.771739     -0.631991     -1.624278
  O       3.311328      0.943311      0.211281
  C       4.726633      0.847077      0.360439
  H      -2.153268      2.356320     -1.274150
  H      -0.373976      2.413304     -1.124375
  H      -1.390194      3.493130     -0.135231
  H      -0.521953      1.569296      1.225849
  H      -2.292650      1.535608      1.125068
  H      -2.590015     -1.187674     -1.106213
  H      -3.346073      0.226121     -0.402712
  H      -3.134436     -0.778807      1.909016
  H      -4.081230     -1.818723      0.815102
  H      -2.391859     -2.234280      1.198759
  H      -1.050275     -2.368360     -0.984481
  H       0.637896     -2.057291     -1.455930
  H       0.265417     -2.567718      0.200109
  H       5.103656      1.867811      0.493183
  H       4.985644      0.238849      1.238935
  H       5.186009      0.406070     -0.537019
29
Coordinates from ORCA-job opt E -976.895677731897
  C      -1.330764      2.487096     -0.566718
  C      -1.369897      1.441341      0.538290
  N      -1.327050      0.071151      0.019058
  C      -2.623963     -0.577129     -0.197287
  C      -3.077984     -1.400343      0.999944
  C      -0.146536     -0.516758     -0.202305
  C      -0.093102     -1.956094     -0.647409
  N       0.947360      0.184821      0.006292
  P       2.455761     -0.385228     -0.046800
  O       2.891339     -1.570822      0.734231
  F       2.774494     -0.658220     -1.608923
  O       3.317060      0.941240      0.207019
  C       4.731758      0.841145      0.356910
  H      -2.165335      2.354378     -1.272100
  H      -0.386248      2.423270     -1.126000
  H      -1.407868      3.495220     -0.133303
  H      -0.521653      1.573259      1.221595
  H      -2.292369      1.533314      1.129865
  H      -2.586198     -1.187380     -1.108819
  H      -3.346266      0.224750     -0.406228
  H      -3.130844     -0.779703      1.907191
  H      -4.077113     -1.820670      0.813816
  H      -2.386222     -2.233291      1.195351
  H      -1.052536     -2.371180     -0.966691
  H       0.622764     -2.047774     -1.474969
  H       0.290154     -2.557575      0.190106
  H       5.111633      1.859643      0.498906
  H       4.988926      0.224928      1.230541
  H       5.190700      0.406609     -0.544070
29
Coordinates from ORCA-job opt E -976.895718286506
  C      -1.338172      2.486849     -0.564845
  C      -1.371477      1.440031      0.540126
  N      -1.325417      0.070675      0.020647
  C      -2.621640     -0.575820     -0.201193
  C      -3.083297     -1.397968      0.994700
  C      -0.143997     -0.515574     -0.199578
  C      -0.088798     -1.953101     -0.648417
  N       0.948995      0.187734      0.010904
  P       2.456224     -0.385920     -0.032908
  O       2.885340     -1.560247      0.769854
  F       2.779166     -0.686962     -1.589599
  O       3.321433      0.939916      0.203565
  C       4.736642      0.838737      0.347568
  H      -2.171832      2.349320     -1.270644
  H      -0.393470      2.428695     -1.124691
  H      -1.421421      3.494722     -0.131708
  H      -0.522719      1.575364      1.221847
  H      -2.292976      1.530061      1.133770
  H      -2.581344     -1.186657     -1.112311
  H      -3.342539      0.226319     -0.413830
  H      -3.137595     -0.777349      1.902023
  H      -4.082996     -1.815850      0.805750
  H      -2.394100     -2.232611      1.192755
  H      -1.052759     -2.380473     -0.935521
  H       0.600226     -2.033630     -1.499863
  H       0.331491     -2.548739      0.175391
  H       5.116275      1.853739      0.513756
  H       4.997520      0.201849      1.205294
  H       5.193239      0.426889     -0.565348
29
Coordinates from ORCA-job opt E -976.895810370639
  C      -1.348895      2.483163     -0.562195
  C      -1.373418      1.436616      0.544171
  N      -1.321670      0.067415      0.027196
  C      -2.616868     -0.574257     -0.208700
  C      -3.100645     -1.388881      0.984456
  C      -0.139033     -0.516023     -0.190555
  C      -0.077994     -1.949728     -0.647259
  N       0.952774      0.190831      0.020281
  P       2.457894     -0.388745     -0.009081
  O       2.875346     -1.542401      0.831282
  F       2.790223     -0.735942     -1.555144
  O       3.327689      0.936454      0.197823
  C       4.744128      0.836008      0.330764
  H      -2.180934      2.337218     -1.268553
  H      -0.404037      2.432709     -1.122879
  H      -1.441541      3.491189     -0.131340
  H      -0.524332      1.578747      1.223803
  H      -2.293934      1.524052      1.140017
  H      -2.569262     -1.188945     -1.117074
  H      -3.331535      0.229995     -0.434161
  H      -3.159898     -0.764915      1.889346
  H      -4.101672     -1.799221      0.786533
  H      -2.420167     -2.228230      1.193612
  H      -1.047532     -2.414249     -0.840656
  H       0.529846     -2.001089     -1.561298
  H       0.446114     -2.524855      0.130057
  H       5.118650      1.839457      0.565122
  H       5.012690      0.143986      1.142303
  H       5.198016      0.489644     -0.610378
29
Coordinates from ORCA-job opt E -976.895892022813
  C      -1.359479      2.470743     -0.568182
  C      -1.373626      1.431144      0.545664
  N      -1.315794      0.059119      0.039679
  C      -2.609317     -0.577714     -0.212420
  C      -3.128643     -1.366972      0.983419
  C      -0.132291     -0.521108     -0.176637
  C      -0.064757     -1.947575     -0.651320
  N       0.958766      0.189429      0.032828
  P       2.462705     -0.392412      0.011408
  O       2.867767     -1.532053      0.879423
  F       2.808997     -0.767071     -1.525241
  O       3.333573      0.931377      0.204529
  C       4.751824      0.833948      0.323429
  H      -2.191517      2.313137     -1.272348
  H      -0.416095      2.423699     -1.131972
  H      -1.459403      3.481467     -0.145676
  H      -0.523928      1.584797      1.221851
  H      -2.292800      1.518980      1.143794
  H      -2.548908     -1.207928     -1.109499
  H      -3.312913      0.227731     -0.467088
  H      -3.197597     -0.727374      1.876786
  H      -4.130883     -1.767637      0.773080
  H      -2.463096     -2.210969      1.220939
  H      -1.021452     -2.472345     -0.687279
  H       0.389592     -1.955728     -1.652972
  H       0.619162     -2.483919      0.022149
  H       5.114894      1.803167      0.685300
  H       5.030375      0.046914      1.039462
  H       5.204843      0.615154     -0.655615
29
Coordinates from ORCA-job opt E -976.896004163841
  C      -1.344704      2.462679     -0.573710
  C      -1.370785      1.428806      0.544621
  N      -1.315259      0.054019      0.045367
  C      -2.608532     -0.582831     -0.208887
  C      -3.137769     -1.359300      0.990183
  C      -0.132921     -0.529642     -0.167622
  C      -0.070717     -1.954204     -0.651157
  N       0.959381      0.178331      0.041577
  P       2.466569     -0.393138      0.004727
  O       2.881910     -1.546533      0.849202
  F       2.809440     -0.730773     -1.538998
  O       3.328285      0.934263      0.221110
  C       4.748323      0.844472      0.329067
  H      -2.176083      2.309041     -1.279334
  H      -0.400207      2.404889     -1.134460
  H      -1.436738      3.476029     -0.156168
  H      -0.525108      1.581737      1.226335
  H      -2.293707      1.522517      1.135852
  H      -2.543614     -1.220973     -1.099838
  H      -3.308162      0.222419     -0.475284
  H      -3.212055     -0.710474      1.876333
  H      -4.139272     -1.759103      0.775430
  H      -2.476896     -2.202848      1.241497
  H      -1.029320     -2.476768     -0.675535
  H       0.366895     -1.957570     -1.660477
  H       0.621306     -2.497727      0.007758
  H       5.105416      1.803657      0.722309
  H       5.036181      0.035697      1.016422
  H       5.198146      0.663330     -0.658827
29
Coordinates from ORCA-job opt E -976.896191363264
  C      -1.301555      2.449626     -0.561797
  C      -1.369245      1.418961      0.555990
  N      -1.315360      0.042483      0.058189
  C      -2.606418     -0.591239     -0.220081
  C      -3.171677     -1.341168      0.977346
  C      -0.133812     -0.548284     -0.140472
  C      -0.076643     -1.971250     -0.634767
  N       0.959081      0.157068      0.066419
  P       2.471938     -0.398196      0.016870
  O       2.912287     -1.550575      0.848285
  F       2.795209     -0.722977     -1.530517
  O       3.318625      0.943549      0.222743
  C       4.741822      0.876653      0.307446
  H      -2.120642      2.311477     -1.284245
  H      -0.346197      2.374257     -1.101131
  H      -1.383270      3.464163     -0.145357
  H      -0.538726      1.560678      1.258995
  H      -2.306142      1.520769      1.122971
  H      -2.518320     -1.245685     -1.096385
  H      -3.292139      0.214415     -0.520607
  H      -3.267507     -0.675247      1.848284
  H      -4.169206     -1.737411      0.739028
  H      -2.525358     -2.184801      1.263403
  H      -1.023582     -2.513660     -0.577769
  H       0.268053     -1.961194     -1.680012
  H       0.678846     -2.508306     -0.045280
  H       5.085054      1.814069      0.760919
  H       5.053043      0.028747      0.934444
  H       5.181840      0.773076     -0.695421
29
Coordinates from ORCA-job opt E -976.896314274807
  C      -1.267864      2.438557     -0.549937
  C      -1.366761      1.407985      0.564999
  N      -1.313676      0.030861      0.067609
  C      -2.602685     -0.599804     -0.230074
  C      -3.203986     -1.320975      0.966820
  C      -0.132157     -0.562733     -0.124576
  C      -0.078890     -1.985182     -0.623073
  N       0.960420      0.140895      0.081834
  P       2.477556     -0.401308      0.022776
  O       2.938843     -1.549007      0.847950
  F       2.784396     -0.723291     -1.526402
  O       3.312036      0.951908      0.216641
  C       4.736307      0.902204      0.294178
  H      -2.075995      2.311715     -1.286438
  H      -0.303726      2.352422     -1.071269
  H      -1.344456      3.453137     -0.132376
  H      -0.548571      1.540947      1.284447
  H      -2.313853      1.515292      1.113513
  H      -2.493552     -1.272496     -1.089825
  H      -3.274074      0.204522     -0.565226
  H      -3.319899     -0.636863      1.820859
  H      -4.197318     -1.714789      0.707410
  H      -2.572722     -2.163341      1.287769
  H      -0.995686     -2.557513     -0.457613
  H       0.139662     -1.967146     -1.702184
  H       0.753637     -2.499986     -0.126103
  H       5.067908      1.815558      0.802218
  H       5.061642      0.022574      0.868025
  H       5.173464      0.865857     -0.714462
29
Coordinates from ORCA-job opt E -976.896399498366
  C      -1.246374      2.434710     -0.544423
  C      -1.364682      1.400991      0.565841
  N      -1.312334      0.024352      0.066698
  C      -2.599941     -0.607936     -0.235064
  C      -3.218184     -1.306935      0.966772
  C      -0.130206     -0.569259     -0.125987
  C      -0.083713     -1.995898     -0.613530
  N       0.961781      0.131800      0.081579
  P       2.481601     -0.399921      0.003855
  O       2.962075     -1.559555      0.798994
  F       2.770621     -0.690732     -1.553954
  O       3.308343      0.957318      0.215172
  C       4.731811      0.915067      0.304230
  H      -2.047035      2.315533     -1.290251
  H      -0.276114      2.344018     -1.053066
  H      -1.321497      3.448135     -0.123153
  H      -0.554797      1.527205      1.296170
  H      -2.317897      1.510936      1.103048
  H      -2.477703     -1.297249     -1.079878
  H      -3.265384      0.191050     -0.594411
  H      -3.350164     -0.607192      1.805611
  H      -4.206512     -1.707421      0.697751
  H      -2.591133     -2.142195      1.313307
  H      -0.977429     -2.579033     -0.371148
  H       0.046573     -1.990096     -1.707092
  H       0.788016     -2.496384     -0.173573
  H       5.054105      1.821003      0.831306
  H       5.059385      0.027382      0.864359
  H       5.176789      0.900306     -0.701670
29
Coordinates from ORCA-job opt E -976.896444517663
  C      -1.244744      2.425074     -0.551859
  C      -1.363111      1.393907      0.561813
  N      -1.306780      0.015641      0.070182
  C      -2.591205     -0.618810     -0.235786
  C      -3.235556     -1.281821      0.973886
  C      -0.123109     -0.575370     -0.122313
  C      -0.082217     -2.000672     -0.613373
  N       0.967156      0.126271      0.088373
  P       2.488237     -0.396447     -0.013613
  O       2.980251     -1.573742      0.748545
  F       2.765176     -0.647585     -1.580373
  O       3.312192      0.956351      0.231190
  C       4.735015      0.915648      0.325853
  H      -2.042316      2.298916     -1.299974
  H      -0.272088      2.336847     -1.056282
  H      -1.326553      3.439694     -0.134620
  H      -0.556779      1.526600      1.295043
  H      -2.318081      1.505472      1.095791
  H      -2.455698     -1.333815     -1.056939
  H      -3.248162      0.170694     -0.630510
  H      -3.385842     -0.557880      1.788849
  H      -4.218254     -1.690173      0.696144
  H      -2.616071     -2.106293      1.357975
  H      -0.909319     -2.615890     -0.244102
  H      -0.112803     -1.999233     -1.714757
  H       0.859936     -2.463752     -0.296429
  H       5.050126      1.781566      0.920436
  H       5.066663     -0.008441      0.820987
  H       5.183934      0.977245     -0.676643
29
Coordinates from ORCA-job opt E -976.896515253392
  C      -1.262609      2.432043     -0.563804
  C      -1.365026      1.399546      0.551016
  N      -1.306536      0.021992      0.059416
  C      -2.590829     -0.618548     -0.229763
  C      -3.213584     -1.288796      0.988113
  C      -0.122016     -0.566239     -0.136945
  C      -0.084723     -1.994434     -0.618391
  N       0.967331      0.136469      0.077215
  P       2.486460     -0.389972     -0.037123
  O       2.975548     -1.586820      0.696421
  F       2.761289     -0.606151     -1.611298
  O       3.317416      0.950217      0.243163
  C       4.738302      0.896673      0.353997
  H      -2.063951      2.297600     -1.306579
  H      -0.292552      2.352533     -1.074948
  H      -1.351484      3.446082     -0.146642
  H      -0.553662      1.537980      1.277354
  H      -2.315672      1.508134      1.093464
  H      -2.463716     -1.333203     -1.052673
  H      -3.259303      0.166262     -0.614186
  H      -3.361517     -0.567128      1.805659
  H      -4.195217     -1.708497      0.723880
  H      -2.579101     -2.106038      1.362966
  H      -0.929946     -2.594499     -0.264614
  H      -0.088369     -2.004817     -1.719510
  H       0.841916     -2.465696     -0.269131
  H       5.056741      1.780653      0.919579
  H       5.056060     -0.011668      0.886066
  H       5.198748      0.916321     -0.645210
29
Coordinates from ORCA-job opt E -976.896545150598
  C      -1.255338      2.429089     -0.566153
  C      -1.366244      1.399043      0.550067
  N      -1.306496      0.020955      0.060912
  C      -2.589926     -0.620013     -0.229118
  C      -3.214520     -1.288171      0.989042
  C      -0.121839     -0.568167     -0.131479
  C      -0.087308     -1.996715     -0.613061
  N       0.966771      0.137377      0.081140
  P       2.486329     -0.385726     -0.048309
  O       2.981447     -1.595360      0.660635
  F       2.753039     -0.571713     -1.628237
  O       3.316767      0.949086      0.253540
  C       4.737997      0.896077      0.361355
  H      -2.051542      2.293428     -1.314270
  H      -0.281946      2.347964     -1.070945
  H      -1.346546      3.444039     -0.151883
  H      -0.559334      1.538125      1.281118
  H      -2.320187      1.510628      1.086139
  H      -2.462552     -1.337138     -1.049770
  H      -3.257954      0.163783     -0.616369
  H      -3.366385     -0.564690      1.804287
  H      -4.194391     -1.711321      0.723940
  H      -2.578501     -2.102601      1.367619
  H      -0.927287     -2.595485     -0.244402
  H      -0.109177     -2.010437     -1.713818
  H       0.844523     -2.466328     -0.275611
  H       5.056524      1.782701      0.922660
  H       5.056640     -0.009888      0.896821
  H       5.197437      0.911457     -0.638356
29
Coordinates from ORCA-job opt E -976.896592179716
  C      -1.248071      2.418840     -0.583390
  C      -1.368457      1.399161      0.541237
  N      -1.304630      0.017362      0.064112
  C      -2.585579     -0.628864     -0.221915
  C      -3.216463     -1.278876      1.002986
  C      -0.119054     -0.572016     -0.122682
  C      -0.090380     -1.999816     -0.607784
  N       0.967626      0.137663      0.092103
  P       2.488026     -0.373753     -0.081463
  O       2.997155     -1.624856      0.542410
  F       2.734310     -0.453963     -1.673946
  O       3.317496      0.939660      0.297832
  C       4.739588      0.886161      0.395678
  H      -2.038138      2.275946     -1.336736
  H      -0.271207      2.333003     -1.080722
  H      -1.342567      3.437661     -0.179709
  H      -0.568286      1.545630      1.278304
  H      -2.327245      1.516546      1.067170
  H      -2.456063     -1.360002     -1.029761
  H      -3.252096      0.148273     -0.624996
  H      -3.379300     -0.542245      1.804262
  H      -4.191535     -1.713121      0.738476
  H      -2.578030     -2.082262      1.400792
  H      -0.899526     -2.603374     -0.181105
  H      -0.187984     -2.019394     -1.704371
  H       0.865826     -2.457607     -0.328495
  H       5.058587      1.765949      0.967155
  H       5.060675     -0.026839      0.917399
  H       5.195321      0.915133     -0.605349
29
Coordinates from ORCA-job opt E -976.896616288353
  C      -1.248987      2.415113     -0.595107
  C      -1.367290      1.400971      0.534477
  N      -1.304641      0.017049      0.062687
  C      -2.586635     -0.630729     -0.216309
  C      -3.211932     -1.277267      1.013015
  C      -0.119417     -0.573536     -0.124520
  C      -0.092697     -2.001793     -0.608641
  N       0.967517      0.136097      0.090462
  P       2.489060     -0.369518     -0.094804
  O       3.000480     -1.637053      0.493295
  F       2.735244     -0.402052     -1.688312
  O       3.316340      0.933969      0.321451
  C       4.738863      0.880911      0.414519
  H      -2.042266      2.270833     -1.344779
  H      -0.274521      2.324731     -1.096276
  H      -1.339255      3.436058     -0.195892
  H      -0.565658      1.550243      1.269395
  H      -2.325112      1.520440      1.061566
  H      -2.461146     -1.363637     -1.023125
  H      -3.254764      0.145619     -0.618372
  H      -3.371622     -0.538229      1.812700
  H      -4.187804     -1.712841      0.753807
  H      -2.571739     -2.079173      1.410941
  H      -0.896859     -2.604655     -0.171265
  H      -0.203982     -2.021890     -1.703972
  H       0.867397     -2.458451     -0.342073
  H       5.058229      1.759407      0.987620
  H       5.060925     -0.033921      0.932453
  H       5.192270      0.913303     -0.587446
29
Coordinates from ORCA-job opt E -976.896665683550
  C      -1.254903      2.408588     -0.623094
  C      -1.361221      1.405318      0.516734
  N      -1.304498      0.017012      0.055129
  C      -2.590289     -0.633533     -0.203417
  C      -3.197088     -1.273174      1.038022
  C      -0.121428     -0.577124     -0.137160
  C      -0.101386     -2.008049     -0.613585
  N       0.967438      0.130528      0.072948
  P       2.492740     -0.361673     -0.123885
  O       3.005147     -1.658147      0.395466
  F       2.752780     -0.299714     -1.712094
  O       3.311260      0.920700      0.371509
  C       4.734218      0.870085      0.460481
  H      -2.060325      2.263210     -1.359344
  H      -0.288990      2.308115     -1.138578
  H      -1.332302      3.433650     -0.231783
  H      -0.551159      1.559087      1.241424
  H      -2.313053      1.528274      1.053580
  H      -2.475460     -1.368893     -1.009491
  H      -3.263832      0.141378     -0.599439
  H      -3.343874     -0.529743      1.836034
  H      -4.176971     -1.708989      0.794917
  H      -2.552939     -2.073922      1.431550
  H      -0.888166     -2.611667     -0.146122
  H      -0.251224     -2.030058     -1.704513
  H       0.870145     -2.459480     -0.384943
  H       5.051236      1.741394      1.045447
  H       5.058600     -0.052322      0.963498
  H       5.185545      0.919150     -0.541795
29
Coordinates from ORCA-job opt E -976.896808339161
  C      -1.266093      2.394910     -0.677212
  C      -1.354265      1.411976      0.481327
  N      -1.302603      0.015975      0.041764
  C      -2.591019     -0.643825     -0.180256
  C      -3.171419     -1.259913      1.085210
  C      -0.121574     -0.580759     -0.158407
  C      -0.114919     -2.017940     -0.615440
  N       0.968185      0.128328      0.036996
  P       2.499092     -0.332732     -0.193245
  O       3.018771     -1.677764      0.171382
  F       2.776505     -0.073925     -1.755651
  O       3.302528      0.886279      0.464450
  C       4.725421      0.835369      0.552293
  H      -2.085312      2.240415     -1.396086
  H      -0.310153      2.281964     -1.208539
  H      -1.331901      3.427170     -0.302870
  H      -0.533611      1.577887      1.191263
  H      -2.297975      1.541968      1.030673
  H      -2.487501     -1.393759     -0.974320
  H      -3.274710      0.120975     -0.578796
  H      -3.307389     -0.500486      1.869929
  H      -4.153338     -1.705349      0.868943
  H      -2.517371     -2.049408      1.484785
  H      -0.837092     -2.626461     -0.057367
  H      -0.383701     -2.056876     -1.683090
  H       0.883970     -2.448015     -0.492395
  H       5.037295      1.676307      1.182466
  H       5.052190     -0.111993      1.005097
  H       5.177989      0.939683     -0.445408
29
Coordinates from ORCA-job opt E -976.896877100479
  C      -1.297799      2.371768     -0.767339
  C      -1.354674      1.425850      0.423213
  N      -1.301298      0.017823      0.023483
  C      -2.588546     -0.661337     -0.140667
  C      -3.124745     -1.241642      1.160630
  C      -0.119549     -0.575755     -0.186621
  C      -0.119937     -2.020497     -0.617910
  N       0.966733      0.142350     -0.009051
  P       2.503624     -0.266088     -0.295453
  O       3.034206     -1.652143     -0.197389
  F       2.799308      0.304076     -1.766221
  O       3.289474      0.802196      0.603746
  C       4.712569      0.746773      0.684611
  H      -2.133474      2.193155     -1.461263
  H      -0.354764      2.243888     -1.318313
  H      -1.356535      3.415736     -0.425462
  H      -0.520733      1.618498      1.110410
  H      -2.287664      1.565419      0.988263
  H      -2.499815     -1.434519     -0.913877
  H      -3.291661      0.083753     -0.542902
  H      -3.249461     -0.457872      1.923023
  H      -4.105864     -1.707507      0.987744
  H      -2.449560     -2.008403      1.569134
  H      -0.754045     -2.630532      0.038344
  H      -0.521068     -2.087333     -1.641783
  H       0.896994     -2.422567     -0.617059
  H       5.021235      1.534560      1.381210
  H       5.041774     -0.234688      1.055987
  H       5.165274      0.935037     -0.300995
29
Coordinates from ORCA-job opt E -976.897010138626
  C      -1.328503      2.367304     -0.802027
  C      -1.362954      1.436182      0.401766
  N      -1.304807      0.024595      0.017362
  C      -2.589461     -0.663987     -0.119940
  C      -3.098103     -1.241864      1.194297
  C      -0.120379     -0.560044     -0.202946
  C      -0.105128     -2.007225     -0.623644
  N       0.961949      0.167073     -0.040042
  P       2.497512     -0.234737     -0.330095
  O       3.019103     -1.627684     -0.311523
  F       2.811720      0.417647     -1.765079
  O       3.284724      0.772582      0.636200
  C       4.705984      0.693042      0.726493
  H      -2.166979      2.166849     -1.486711
  H      -0.387583      2.244713     -1.358214
  H      -1.399632      3.415033     -0.473985
  H      -0.520327      1.643918      1.073539
  H      -2.288785      1.578162      0.978061
  H      -2.507962     -1.441867     -0.889145
  H      -3.305716      0.072571     -0.513957
  H      -3.214962     -0.455408      1.955314
  H      -4.078670     -1.716857      1.043747
  H      -2.407997     -2.000773      1.592874
  H      -0.765068     -2.616477      0.006726
  H      -0.455736     -2.085863     -1.663863
  H       0.914407     -2.401943     -0.568822
  H       5.023757      1.464737      1.437176
  H       5.019075     -0.297946      1.086276
  H       5.170522      0.888266     -0.252346
29
Coordinates from ORCA-job opt E -976.897142383748
  C      -1.334199      2.354580     -0.831351
  C      -1.370002      1.440115      0.385749
  N      -1.305479      0.024008      0.019711
  C      -2.585126     -0.674612     -0.106294
  C      -3.093981     -1.230309      1.217432
  C      -0.118584     -0.553746     -0.204658
  C      -0.095814     -2.006055     -0.608169
  N       0.959032      0.184602     -0.064539
  P       2.494585     -0.188623     -0.376509
  O       3.028211     -1.572857     -0.481980
  F       2.798578      0.584959     -1.754152
  O       3.280384      0.739545      0.668970
  C       4.700326      0.642660      0.762339
  H      -2.166057      2.135792     -1.518335
  H      -0.387493      2.231369     -1.377330
  H      -1.417164      3.406146     -0.518946
  H      -0.529638      1.660613      1.056448
  H      -2.298105      1.587795      0.956685
  H      -2.493583     -1.469422     -0.856622
  H      -3.305545      0.047825     -0.518731
  H      -3.222338     -0.430429      1.962372
  H      -4.069380     -1.717488      1.072683
  H      -2.397484     -1.974512      1.632227
  H      -0.721369     -2.616998      0.055480
  H      -0.482989     -2.111980     -1.632529
  H       0.931397     -2.381862     -0.577933
  H       5.022640      1.367161      1.519551
  H       5.005426     -0.369401      1.065734
  H       5.173751      0.891126     -0.199812
29
Coordinates from ORCA-job opt E -976.897223704536
  C      -1.347593      2.335128     -0.882361
  C      -1.374585      1.447872      0.355353
  N      -1.305083      0.024583      0.019043
  C      -2.580409     -0.685069     -0.083017
  C      -3.077935     -1.214949      1.254963
  C      -0.118090     -0.548116     -0.212761
  C      -0.087269     -2.007771     -0.588885
  N       0.955208      0.201977     -0.109032
  P       2.493859     -0.131138     -0.430188
  O       3.040076     -1.489191     -0.694088
  F       2.808657      0.801237     -1.703217
  O       3.265162      0.674656      0.724794
  C       4.685410      0.576469      0.811534
  H      -2.179343      2.093752     -1.561741
  H      -0.400597      2.205211     -1.426135
  H      -1.437570      3.392909     -0.594420
  H      -0.531912      1.686966      1.016814
  H      -2.300949      1.603794      0.926679
  H      -2.486762     -1.496719     -0.814756
  H      -3.307960      0.023336     -0.507456
  H      -3.202943     -0.400896      1.984944
  H      -4.053365     -1.706391      1.126861
  H      -2.376622     -1.949682      1.678275
  H      -0.669601     -2.618825      0.113373
  H      -0.518186     -2.142822     -1.592338
  H       0.947831     -2.361159     -0.599544
  H       5.001761      1.198009      1.657765
  H       4.997355     -0.463732      0.984549
  H       5.161455      0.950566     -0.107516
29
Coordinates from ORCA-job opt E -976.897276566523
  C      -1.336809      2.342628     -0.858959
  C      -1.366462      1.442841      0.369569
  N      -1.302937      0.022065      0.021887
  C      -2.581434     -0.679960     -0.092928
  C      -3.091174     -1.215146      1.238051
  C      -0.119767     -0.556339     -0.210694
  C      -0.095994     -2.015256     -0.590950
  N       0.958475      0.187359     -0.111488
  P       2.496927     -0.165572     -0.407733
  O       3.034806     -1.541626     -0.581969
  F       2.821862      0.681585     -1.736898
  O       3.268058      0.708006      0.696515
  C       4.688826      0.622334      0.786524
  H      -2.169624      2.110912     -1.540408
  H      -0.390601      2.215409     -1.404482
  H      -1.423740      3.397444     -0.559894
  H      -0.523208      1.672613      1.033721
  H      -2.292259      1.596546      0.942415
  H      -2.488705     -1.487688     -0.829249
  H      -3.301900      0.035759     -0.517295
  H      -3.211246     -0.405471      1.973652
  H      -4.071079     -1.694655      1.100225
  H      -2.400044     -1.960725      1.659038
  H      -0.688183     -2.626835      0.102207
  H      -0.518220     -2.141261     -1.599979
  H       0.936891     -2.375603     -0.596227
  H       4.995138      1.219001      1.654065
  H       5.010116     -0.419841      0.927487
  H       5.162287      1.031478     -0.118708
29
Coordinates from ORCA-job opt E -976.897320705309
  C      -1.357673      2.342923     -0.877783
  C      -1.367254      1.447785      0.354426
  N      -1.301061      0.025915      0.012740
  C      -2.578056     -0.681408     -0.085619
  C      -3.071941     -1.211102      1.253939
  C      -0.117726     -0.551057     -0.222901
  C      -0.093945     -2.011951     -0.594255
  N       0.959281      0.195213     -0.130225
  P       2.499116     -0.156518     -0.419615
  O       3.033722     -1.530769     -0.619224
  F       2.840894      0.720155     -1.725708
  O       3.263584      0.686324      0.711993
  C       4.683587      0.599710      0.808917
  H      -2.197274      2.103559     -1.548279
  H      -0.417592      2.219413     -1.434703
  H      -1.447656      3.398365     -0.581688
  H      -0.517431      1.684473      1.007619
  H      -2.286840      1.599279      0.937930
  H      -2.490490     -1.493255     -0.818028
  H      -3.305668      0.029001     -0.506535
  H      -3.187441     -0.397773      1.986255
  H      -4.051283     -1.695529      1.129373
  H      -2.373088     -1.951169      1.671978
  H      -0.680329     -2.618615      0.107978
  H      -0.524983     -2.144213     -1.598703
  H       0.939798     -2.370012     -0.607944
  H       4.980673      1.160434      1.703117
  H       5.005711     -0.447080      0.907948
  H       5.161366      1.047904     -0.075511
29
Coordinates from ORCA-job opt E -976.897339626462
  C      -1.371897      2.343689     -0.891864
  C      -1.367274      1.451326      0.342086
  N      -1.299896      0.028998      0.003521
  C      -2.576024     -0.682229     -0.079161
  C      -3.054339     -1.208554      1.267894
  C      -0.116170     -0.546664     -0.236108
  C      -0.092872     -2.009723     -0.598270
  N       0.958843      0.203055     -0.151560
  P       2.500453     -0.150677     -0.431296
  O       3.032780     -1.524010     -0.644120
  F       2.857420      0.743133     -1.721811
  O       3.257593      0.672037      0.719049
  C       4.676649      0.584208      0.828023
  H      -2.217024      2.100590     -1.554105
  H      -0.436838      2.222418     -1.457823
  H      -1.462729      3.399382     -0.596567
  H      -0.512043      1.691508      0.986770
  H      -2.281831      1.601546      0.933981
  H      -2.494202     -1.496631     -0.809328
  H      -3.310015      0.024353     -0.495130
  H      -3.165767     -0.392854      1.998209
  H      -4.032827     -1.697780      1.155110
  H      -2.348191     -1.943869      1.682058
  H      -0.678687     -2.608725      0.111020
  H      -0.528373     -2.148496     -1.599593
  H       0.940458     -2.369163     -0.614112
  H       4.961969      1.111624      1.745911
  H       4.999462     -0.465268      0.889060
  H       5.161372      1.066775     -0.034351
29
Coordinates from ORCA-job opt E -976.897344879796
  C      -1.374596      2.344660     -0.893828
  C      -1.367219      1.452028      0.339836
  N      -1.299514      0.029710      0.001151
  C      -2.575322     -0.682513     -0.077484
  C      -3.049740     -1.208456      1.271172
  C      -0.115463     -0.545106     -0.240365
  C      -0.092551     -2.008714     -0.600315
  N       0.958552      0.206337     -0.159784
  P       2.500768     -0.151072     -0.434599
  O       3.031765     -1.525877     -0.641042
  F       2.861025      0.737456     -1.727608
  O       3.256126      0.674432      0.714535
  C       4.674335      0.583016      0.832385
  H      -2.221056      2.101769     -1.554466
  H      -0.440766      2.224078     -1.461930
  H      -1.465151      3.400191     -0.597729
  H      -0.510833      1.692471      0.982929
  H      -2.280716      1.601813      0.933470
  H      -2.494986     -1.497245     -0.807449
  H      -3.310950      0.023242     -0.491939
  H      -3.161041     -0.392382      2.001082
  H      -4.027570     -1.699560      1.160738
  H      -2.341545     -1.942265      1.684535
  H      -0.678702     -2.604780      0.111234
  H      -0.529554     -2.149530     -1.600608
  H       0.940188     -2.369772     -0.615905
  H       4.954046      1.097157      1.759449
  H       4.995063     -0.467774      0.880094
  H       5.165406      1.076687     -0.020066
29
Coordinates from ORCA-job opt E -976.897350401624
  C      -1.376030      2.343643     -0.897735
  C      -1.367961      1.453121      0.337465
  N      -1.299398      0.030180      0.001022
  C      -2.574499     -0.683420     -0.074465
  C      -3.046642     -1.208182      1.275259
  C      -0.114868     -0.543096     -0.242626
  C      -0.090997     -2.007283     -0.600330
  N       0.957781      0.210802     -0.167969
  P       2.500672     -0.147762     -0.440366
  O       3.031413     -1.522285     -0.648644
  F       2.861542      0.742705     -1.731139
  O       3.254510      0.675892      0.711135
  C       4.671721      0.578836      0.837207
  H      -2.222909      2.099860     -1.557494
  H      -0.442559      2.222134     -1.466171
  H      -1.466219      3.399679     -0.603318
  H      -0.511432      1.695221      0.979804
  H      -2.281338      1.603597      0.931026
  H      -2.494548     -1.498752     -0.803828
  H      -3.311396      0.021238     -0.488605
  H      -3.158340     -0.391347      2.004242
  H      -4.023893     -1.700701      1.166223
  H      -2.337338     -1.940764      1.688920
  H      -0.674460     -2.602274      0.114408
  H      -0.531095     -2.150844     -1.598863
  H       0.941747     -2.367985     -0.617604
  H       4.947024      1.074549      1.775577
  H       4.989523     -0.473497      0.866931
  H       5.169988      1.086736     -0.002570
29
Coordinates from ORCA-job opt E -976.897349481066
  C      -1.376270      2.344056     -0.896905
  C      -1.368499      1.453432      0.338237
  N      -1.299559      0.030498      0.001556
  C      -2.574454     -0.683396     -0.074366
  C      -3.046231     -1.209715      1.274763
  C      -0.114716     -0.542121     -0.242434
  C      -0.090417     -2.006152     -0.600787
  N       0.957581      0.212384     -0.167523
  P       2.500609     -0.147381     -0.440751
  O       3.031266     -1.522490     -0.644631
  F       2.859058      0.738448     -1.734879
  O       3.255293      0.680720      0.707052
  C       4.671745      0.578667      0.836932
  H      -2.223299      2.100802     -1.556651
  H      -0.442889      2.222082     -1.465365
  H      -1.465753      3.400167     -0.602539
  H      -0.512295      1.695760      0.980935
  H      -2.282121      1.603695      0.931447
  H      -2.494565     -1.497660     -0.804953
  H      -3.311622      0.021633     -0.487419
  H      -3.158300     -0.393603      2.004492
  H      -4.023240     -1.702620      1.165286
  H      -2.336726     -1.942451      1.687801
  H      -0.675387     -2.601628      0.112300
  H      -0.528220     -2.149002     -1.600438
  H       0.942198     -2.367257     -0.615654
  H       4.947428      1.079928      1.772239
  H       4.985018     -0.474756      0.875163
  H       5.174371      1.077961     -0.005413
29
Coordinates from ORCA-job opt E -976.897348283929
  C      -1.377022      2.343364     -0.898309
  C      -1.368633      1.453735      0.337574
  N      -1.299461      0.030579      0.002016
  C      -2.574204     -0.683581     -0.073766
  C      -3.046194     -1.209228      1.275510
  C      -0.114644     -0.541936     -0.242089
  C      -0.090009     -2.006057     -0.600085
  N       0.957583      0.212759     -0.168043
  P       2.500725     -0.146169     -0.441570
  O       3.031434     -1.520802     -0.648536
  F       2.859263      0.742740     -1.733359
  O       3.255200      0.679354      0.708371
  C       4.671635      0.577107      0.837672
  H      -2.224296      2.099402     -1.557476
  H      -0.443840      2.220915     -1.466996
  H      -1.466451      3.399740     -0.604928
  H      -0.512366      1.696908      0.979859
  H      -2.282135      1.604222      0.930925
  H      -2.494142     -1.498162     -0.803989
  H      -3.311422      0.021162     -0.487233
  H      -3.158003     -0.392737      2.004857
  H      -4.023384     -1.701809      1.166225
  H      -2.336992     -1.942048      1.688911
  H      -0.673712     -2.602258      0.113403
  H      -0.528529     -2.149037     -1.599439
  H       0.942907     -2.366274     -0.616164
  H       4.947284      1.073270      1.775720
  H       4.985358     -0.476370      0.870357
  H       5.174049      1.081210     -0.001926
