42
Coordinates from ORCA-job opt E -1378.792151236953
  C           3.74582105208203     -1.54148286211226     -1.00764127539443
  C           3.94439988058251     -0.59577160263452      0.15352187941604
  O           3.27470533267781      0.64362287760652     -0.13328316261223
  P           2.53443941230990      1.48805767718314      1.03471900297117
  C           3.74580571681601      2.65062474624369      1.66892027409655
  O           1.89691243878930      0.61702220240259      2.07451377149405
  S           1.22955509941581      2.68074909649087     -0.08447420667729
  C           0.12637455726483      1.37120014052640     -0.73154892387355
  C          -0.93628079949191      0.93221118411536      0.27613175203291
  N          -1.76577523953363     -0.14451066078215     -0.24608295873403
  C          -3.15843892557635      0.25552507105720     -0.49149126980389
  C          -3.21501491183376      1.36476258070091     -1.54449282595532
  C          -4.03469269082875     -0.90864205486508     -0.95115320275021
  C          -1.55229743067510     -1.43371556053970      0.42549542364270
  C          -1.99345107040763     -1.45600738684922      1.89514480290379
  C          -0.10436883326012     -1.89912439112943      0.26961857916527
  H           4.13528907581206     -1.10459487583435     -1.93903258722243
  H           4.28038780206151     -2.48378842057732     -0.81798300469219
  H           2.67855613313713     -1.76862815147681     -1.14627111508837
  H           3.53847998768221     -1.01951006846944      1.08503181214853
  H           5.01260058138827     -0.37755277329155      0.31377331037785
  H           3.25462751950310      3.35104516872093      2.35839048285343
  H           4.50472119654902      2.07456151495433      2.21865846146347
  H           4.22124342991983      3.19684831859575      0.84342346239710
  H          -0.32648529716436      1.80091201860366     -1.63642730482818
  H           0.75009008033972      0.52299770126240     -1.04790477181167
  H          -1.54917118876570      1.80501382532707      0.56017205418795
  H          -0.42128780015303      0.62434508950283      1.19854346383337
  H          -3.60805657191555      0.66221160346242      0.44360197979679
  H          -2.64276010323071      2.25661320300065     -1.25094155636730
  H          -4.25589826665022      1.68282570595259     -1.70659914813001
  H          -2.81039417779207      0.99832869098045     -2.50217340076047
  H          -4.19528715959293     -1.66388683192250     -0.16899449458642
  H          -5.02380298179518     -0.52702278601228     -1.24392018704491
  H          -3.58995581450267     -1.40585045574476     -1.82884452518099
  H          -2.16627953278142     -2.16817631780178     -0.11488992494592
  H          -3.04545780409729     -1.14924424395884      2.00493702176990
  H          -1.89625543701729     -2.47003915606389      2.31270444752381
  H          -1.37776865406604     -0.78367246798736      2.51431792483052
  H           0.17915544976882     -1.92255168220448     -0.79397022703309
  H           0.60203331638468     -1.24197648171971      0.80161674705215
  H           0.01398264864717     -2.91372917471234      0.67943953953555
