42
Coordinates from ORCA-job opt E -1378.777009126650
  C       4.472454      0.595393     -2.884708
  C       4.430387      0.277211     -1.404600
  O       3.382237      1.025356     -0.809918
  P       3.260908      0.991852      0.804157
  C       4.417504      2.255876      1.318510
  O       3.596818     -0.356694      1.374362
  S       1.339237      1.581826      1.351278
  C       0.312987      0.238742      0.681434
  C      -1.171309      0.490226      0.971621
  N      -2.001342     -0.588583      0.385283
  C      -2.828659     -0.111263     -0.753463
  C      -1.945393      0.409320     -1.903329
  C      -3.746959     -1.192085     -1.351267
  C      -2.723096     -1.392132      1.399138
  C      -3.801192     -0.623049      2.174087
  C      -1.757902     -2.087500      2.373404
  H       4.643727      1.665139     -3.044129
  H       5.266832      0.032549     -3.382717
  H       3.515914      0.352030     -3.358996
  H       4.239200     -0.789960     -1.255243
  H       5.384740      0.536665     -0.936586
  H       4.392223      2.375309      2.405345
  H       5.437643      1.990162      1.028837
  H       4.168908      3.216957      0.859546
  H       0.499586      0.174458     -0.394653
  H       0.639966     -0.702381      1.134896
  H      -1.474998      1.474343      0.591938
  H      -1.308484      0.567411      2.056134
  H      -3.469201      0.715005     -0.418668
  H      -1.359960      1.287264     -1.615001
  H      -2.560748      0.714225     -2.757534
  H      -1.252575     -0.364996     -2.251838
  H      -4.546003     -1.477330     -0.660121
  H      -4.241378     -0.825168     -2.258082
  H      -3.181266     -2.090599     -1.621940
  H      -3.218549     -2.224456      0.886796
  H      -4.549497     -0.190224      1.503193
  H      -4.331674     -1.298052      2.855193
  H      -3.380460      0.185965      2.779004
  H      -0.987589     -2.644012      1.828127
  H      -1.261153     -1.386312      3.050749
  H      -2.301882     -2.808488      2.994315
42
Coordinates from ORCA-job opt E -1378.783793091250
  C       4.418998      0.716394     -2.909283
  C       4.365191      0.286171     -1.459481
  O       3.358338      1.055509     -0.795049
  P       3.227979      0.930157      0.816860
  C       4.374147      2.151507      1.453130
  O       3.479674     -0.462855      1.315726
  S       1.320548      1.605660      1.298271
  C       0.315899      0.236789      0.633111
  C      -1.161450      0.500018      0.914304
  N      -1.982294     -0.579016      0.371327
  C      -2.800588     -0.142939     -0.769969
  C      -1.902278      0.318891     -1.922993
  C      -3.724528     -1.252132     -1.279203
  C      -2.693547     -1.344694      1.402029
  C      -3.768775     -0.550969      2.154816
  C      -1.710254     -2.003522      2.374229
  H       4.659137      1.787457     -2.988289
  H       5.183599      0.143366     -3.451819
  H       3.446449      0.557302     -3.398127
  H       4.115529     -0.783100     -1.381411
  H       5.343223      0.450529     -0.977312
  H       4.300836      2.208456      2.548472
  H       5.399552      1.860806      1.186764
  H       4.166020      3.144732      1.029232
  H       0.505300      0.153656     -0.445972
  H       0.638567     -0.698027      1.112705
  H      -1.462221      1.476874      0.498388
  H      -1.303399      0.600699      2.002301
  H      -3.438130      0.715359     -0.469737
  H      -1.283242      1.189497     -1.657379
  H      -2.513527      0.614910     -2.787986
  H      -1.234549     -0.495878     -2.244115
  H      -4.515015     -1.505620     -0.557332
  H      -4.228104     -0.927592     -2.200584
  H      -3.154486     -2.166290     -1.510118
  H      -3.194145     -2.183047      0.894988
  H      -4.519781     -0.131057      1.467693
  H      -4.301739     -1.205955      2.860976
  H      -3.336906      0.279702      2.735319
  H      -0.943567     -2.573704      1.827324
  H      -1.200630     -1.272608      3.022073
  H      -2.245829     -2.705435      3.030677
42
Coordinates from ORCA-job opt E -1378.785739616004
  C       4.352874      0.873201     -2.926714
  C       4.282274      0.309696     -1.526846
  O       3.340153      1.095278     -0.777421
  P       3.193642      0.859330      0.821833
  C       4.353962      1.994329      1.585301
  O       3.335996     -0.577659      1.222244
  S       1.320840      1.659931      1.236976
  C       0.322343      0.262692      0.606671
  C      -1.155613      0.544179      0.855484
  N      -1.978430     -0.553938      0.374064
  C      -2.776889     -0.194676     -0.808752
  C      -1.854555      0.211546     -1.958225
  C      -3.683363     -1.333294     -1.269173
  C      -2.668137     -1.290037      1.441726
  C      -3.744582     -0.483359      2.179610
  C      -1.665060     -1.910869      2.414019
  H       4.687987      1.922187     -2.908717
  H       5.063105      0.289726     -3.531741
  H       3.364410      0.835128     -3.412196
  H       3.951293     -0.741692     -1.535370
  H       5.274336      0.348228     -1.041642
  H       4.233142      1.976362      2.678522
  H       5.372007      1.659718      1.332852
  H       4.205549      3.019137      1.213511
  H       0.522677      0.136798     -0.466978
  H       0.633397     -0.652417      1.130772
  H      -1.443638      1.498010      0.376612
  H      -1.308023      0.709216      1.935211
  H      -3.427672      0.682531     -0.577785
  H      -1.231481      1.086727     -1.716748
  H      -2.449528      0.472155     -2.847801
  H      -1.186846     -0.625919     -2.224173
  H      -4.494354     -1.550905     -0.559233
  H      -4.154190     -1.060427     -2.225990
  H      -3.099990     -2.256425     -1.427130
  H      -3.169700     -2.138759      0.954416
  H      -4.504098     -0.088173      1.485078
  H      -4.265851     -1.119663      2.912817
  H      -3.310599      0.369860      2.728151
  H      -0.908079     -2.496627      1.868426
  H      -1.141936     -1.154480      3.023300
  H      -2.187370     -2.586644      3.109594
42
Coordinates from ORCA-job opt E -1378.785983979593
  C       4.345687      0.809034     -2.908489
  C       4.294684      0.287916     -1.491802
  O       3.352299      1.085282     -0.754280
  P       3.207751      0.880256      0.849436
  C       4.353444      2.043534      1.593397
  O       3.359034     -0.546536      1.276563
  S       1.325565      1.688020      1.228014
  C       0.333192      0.284344      0.594391
  C      -1.148757      0.550032      0.851665
  N      -1.976694     -0.542618      0.359216
  C      -2.793056     -0.174992     -0.809256
  C      -1.898882      0.234838     -1.980855
  C      -3.712961     -1.308836     -1.255004
  C      -2.650055     -1.303926      1.419716
  C      -3.724466     -0.515010      2.178658
  C      -1.635637     -1.936011      2.372362
  H       4.676620      1.858161     -2.926611
  H       5.051661      0.210167     -3.502383
  H       3.354093      0.748418     -3.381381
  H       3.972956     -0.765052     -1.461910
  H       5.288867      0.349233     -1.016501
  H       4.231070      2.037839      2.685380
  H       5.374246      1.716315      1.344037
  H       4.188395      3.057173      1.202718
  H       0.529396      0.167564     -0.480379
  H       0.656621     -0.629639      1.110182
  H      -1.442192      1.509077      0.389001
  H      -1.295173      0.698453      1.934406
  H      -3.437354      0.700887     -0.561230
  H      -1.259693      1.098853     -1.748556
  H      -2.516285      0.511856     -2.848989
  H      -1.249568     -0.606543     -2.274120
  H      -4.506108     -1.530849     -0.527199
  H      -4.204857     -1.028184     -2.198129
  H      -3.135048     -2.230779     -1.433100
  H      -3.152669     -2.144066      0.918753
  H      -4.487163     -0.110160      1.494707
  H      -4.238932     -1.164867      2.903520
  H      -3.290041      0.329382      2.738483
  H      -0.888189     -2.516968      1.810678
  H      -1.102792     -1.186140      2.979574
  H      -2.149009     -2.615460      3.069870
42
Coordinates from ORCA-job opt E -1378.786077600104
  C       4.355027      0.736923     -2.893071
  C       4.315257      0.262081     -1.460107
  O       3.364223      1.068741     -0.744768
  P       3.208696      0.897127      0.861742
  C       4.341921      2.082622      1.590608
  O       3.364694     -0.518402      1.318682
  S       1.316435      1.713997      1.197066
  C       0.327014      0.304038      0.569396
  C      -1.155927      0.554074      0.844058
  N      -1.984348     -0.537745      0.350791
  C      -2.817120     -0.160291     -0.802082
  C      -1.939373      0.287474     -1.972867
  C      -3.727558     -1.294543     -1.270261
  C      -2.633944     -1.320711      1.411201
  C      -3.706812     -0.550204      2.191182
  C      -1.599902     -1.948268      2.345245
  H       4.677024      1.786780     -2.947109
  H       5.063404      0.124944     -3.469698
  H       3.363402      0.649850     -3.359400
  H       4.007214     -0.792577     -1.392750
  H       5.307993      0.352352     -0.988671
  H       4.213695      2.089163      2.681161
  H       5.365754      1.761266      1.348519
  H       4.164592      3.085584      1.180900
  H       0.512967      0.194258     -0.507758
  H       0.667034     -0.607818      1.077218
  H      -1.459928      1.514004      0.391181
  H      -1.290803      0.692606      1.929374
  H      -3.469845      0.700376     -0.530242
  H      -1.299500      1.144999     -1.721256
  H      -2.568543      0.589484     -2.823181
  H      -1.291646     -0.541993     -2.299055
  H      -4.512483     -1.544652     -0.543504
  H      -4.228673     -0.996069     -2.202384
  H      -3.140469     -2.204181     -1.475793
  H      -3.132914     -2.161239      0.908670
  H      -4.479350     -0.146207      1.519084
  H      -4.206381     -1.210899      2.915837
  H      -3.274087      0.292712      2.753136
  H      -0.860176     -2.524383      1.769613
  H      -1.060393     -1.195564      2.941643
  H      -2.096169     -2.629710      3.052204
42
Coordinates from ORCA-job opt E -1378.786123132441
  C       4.353175      0.727318     -2.890125
  C       4.322486      0.262567     -1.453815
  O       3.368565      1.068184     -0.742159
  P       3.205229      0.898734      0.863670
  C       4.339295      2.080297      1.598071
  O       3.355774     -0.516253      1.322887
  S       1.312642      1.725281      1.185889
  C       0.322047      0.317923      0.556490
  C      -1.159055      0.561203      0.843575
  N      -1.984141     -0.531707      0.349681
  C      -2.818314     -0.155937     -0.801545
  C      -1.941276      0.282269     -1.977171
  C      -3.732366     -1.290279     -1.263242
  C      -2.629730     -1.320889      1.408131
  C      -3.701732     -0.555108      2.194706
  C      -1.592543     -1.951607      2.336663
  H       4.669190      1.778638     -2.952979
  H       5.062153      0.115244     -3.466030
  H       3.359398      0.631192     -3.351215
  H       4.021707     -0.793686     -1.377879
  H       5.316189      0.363552     -0.986093
  H       4.207364      2.083349      2.688355
  H       5.363330      1.758828      1.357610
  H       4.162573      3.083753      1.188833
  H       0.500643      0.216519     -0.522878
  H       0.670112     -0.596198      1.055678
  H      -1.469464      1.521720      0.396531
  H      -1.286883      0.694437      1.930290
  H      -3.468472      0.707471     -0.532559
  H      -1.296541      1.137683     -1.730375
  H      -2.571117      0.583919     -2.827165
  H      -1.297117     -0.551238     -2.300979
  H      -4.514704     -1.537091     -0.532388
  H      -4.236858     -0.993519     -2.194127
  H      -3.147632     -2.201531     -1.468977
  H      -3.128812     -2.160229      0.903325
  H      -4.476226     -0.149272      1.525895
  H      -4.198656     -1.219163      2.918246
  H      -3.268397      0.286177      2.758782
  H      -0.855181     -2.526658      1.756560
  H      -1.050565     -1.200654      2.932938
  H      -2.086092     -2.635244      3.043452
42
Coordinates from ORCA-job opt E -1378.786139176420
  C       4.357354      0.689605     -2.879006
  C       4.334993      0.251974     -1.433994
  O       3.374877      1.061853     -0.736263
  P       3.196904      0.906339      0.869278
  C       4.329366      2.088281      1.606094
  O       3.338957     -0.504952      1.342198
  S       1.303837      1.744360      1.166799
  C       0.314160      0.338350      0.535121
  C      -1.165260      0.571984      0.836018
  N      -1.985801     -0.523578      0.342314
  C      -2.830970     -0.147687     -0.800165
  C      -1.965135      0.301644     -1.980091
  C      -3.740169     -1.286451     -1.260451
  C      -2.616704     -1.323875      1.400598
  C      -3.683635     -0.568966      2.204867
  C      -1.566189     -1.956907      2.312570
  H       4.662472      1.742998     -2.962607
  H       5.070680      0.074049     -3.446123
  H       3.362692      0.575143     -3.334959
  H       4.045164     -0.805989     -1.338094
  H       5.329091      0.372149     -0.970636
  H       4.189024      2.095987      2.695553
  H       5.354760      1.764722      1.374268
  H       4.156195      3.089944      1.189942
  H       0.484742      0.245634     -0.546335
  H       0.671484     -0.577735      1.025020
  H      -1.485330      1.533146      0.396247
  H      -1.284901      0.698576      1.924446
  H      -3.485844      0.709894     -0.522742
  H      -1.325033      1.160886     -1.732739
  H      -2.602528      0.602667     -2.824953
  H      -1.315723     -0.525242     -2.310996
  H      -4.513337     -1.544144     -0.523244
  H      -4.256485     -0.987641     -2.184380
  H      -3.150317     -2.191823     -1.478277
  H      -3.117030     -2.162127      0.894935
  H      -4.467241     -0.161568      1.547222
  H      -4.169755     -1.240471      2.929176
  H      -3.247475      0.270282      2.770321
  H      -0.833488     -2.525586      1.719862
  H      -1.019901     -1.207726      2.907606
  H      -2.048504     -2.648001      3.020153
42
Coordinates from ORCA-job opt E -1378.786156613621
  C       4.358325      0.646394     -2.866766
  C       4.347778      0.241633     -1.411921
  O       3.382756      1.057417     -0.728540
  P       3.188169      0.914571      0.876022
  C       4.319612      2.094209      1.618524
  O       3.317881     -0.493909      1.361373
  S       1.296453      1.765416      1.147666
  C       0.307608      0.362585      0.508773
  C      -1.169953      0.583128      0.827011
  N      -1.986204     -0.515470      0.333035
  C      -2.844954     -0.138409     -0.798917
  C      -1.992474      0.322381     -1.984057
  C      -3.752035     -1.279729     -1.256565
  C      -2.599059     -1.328336      1.391846
  C      -3.665967     -0.589534      2.210930
  C      -1.532751     -1.955895      2.289405
  H       4.649835      1.701498     -2.975858
  H       5.076188      0.027120     -3.424176
  H       3.362445      0.510249     -3.314500
  H       4.070277     -0.817271     -1.291336
  H       5.342998      0.383163     -0.956438
  H       4.168102      2.107168      2.706540
  H       5.346178      1.766171      1.398331
  H       4.154453      3.094738      1.195810
  H       0.468158      0.282938     -0.575262
  H       0.675205     -0.557003      0.984665
  H      -1.502376      1.545278      0.398253
  H      -1.279223      0.700453      1.917662
  H      -3.502645      0.714034     -0.511220
  H      -1.356711      1.185301     -1.737307
  H      -2.638708      0.622739     -2.822524
  H      -1.338852     -0.497805     -2.323449
  H      -4.516050     -1.546121     -0.512815
  H      -4.280195     -0.978398     -2.173103
  H      -3.159428     -2.180539     -1.486196
  H      -3.095187     -2.169140      0.886474
  H      -4.460547     -0.186928      1.563198
  H      -4.137593     -1.270195      2.936435
  H      -3.232863      0.251240      2.776703
  H      -0.800977     -2.514701      1.686008
  H      -0.987255     -1.204407      2.882672
  H      -2.000416     -2.656033      2.998171
42
Coordinates from ORCA-job opt E -1378.786219160763
  C       4.348019      0.435263     -2.796273
  C       4.384748      0.187752     -1.306598
  O       3.405351      1.037488     -0.690526
  P       3.146143      0.962132      0.908492
  C       4.273283      2.140407      1.660668
  O       3.223677     -0.428802      1.454444
  S       1.264484      1.863878      1.068205
  C       0.281862      0.470430      0.402127
  C      -1.186839      0.632406      0.787200
  N      -1.984573     -0.478537      0.289634
  C      -2.903014     -0.096308     -0.792402
  C      -2.114246      0.428483     -1.994615
  C      -3.792153     -1.252403     -1.246440
  C      -2.517845     -1.348346      1.345355
  C      -3.568151     -0.677161      2.240143
  C      -1.387081     -1.968140      2.167195
  H       4.587928      1.484829     -3.023876
  H       5.080612     -0.207493     -3.305990
  H       3.348549      0.212301     -3.200153
  H       4.152719     -0.862736     -1.069747
  H       5.383502      0.413708     -0.893559
  H       4.075252      2.190045      2.740261
  H       5.302205      1.788725      1.494689
  H       4.146024      3.130122      1.199898
  H       0.401885      0.441620     -0.689651
  H       0.691363     -0.459072      0.822090
  H      -1.569738      1.596003      0.405435
  H      -1.254895      0.711536      1.884795
  H      -3.576213      0.725370     -0.453091
  H      -1.503229      1.308686     -1.744382
  H      -2.801240      0.726683     -2.800962
  H      -1.440398     -0.354856     -2.378870
  H      -4.511748     -1.568014     -0.477869
  H      -4.373698     -0.939756     -2.126432
  H      -3.182765     -2.125256     -1.534119
  H      -3.008030     -2.190090      0.835768
  H      -4.408485     -0.283844      1.646034
  H      -3.977686     -1.397966      2.964876
  H      -3.136447      0.160514      2.812022
  H      -0.670104     -2.483701      1.509558
  H      -0.835510     -1.218050      2.757222
  H      -1.793518     -2.707845      2.873999
42
Coordinates from ORCA-job opt E -1378.786265181434
  C       4.310861      0.238667     -2.717555
  C       4.393152      0.136879     -1.212509
  O       3.408968      1.018565     -0.652780
  P       3.111375      1.010174      0.940512
  C       4.238785      2.195540      1.680865
  O       3.151528     -0.360187      1.541428
  S       1.241815      1.946432      1.017113
  C       0.265065      0.560129      0.327547
  C      -1.195222      0.673391      0.758405
  N      -1.977604     -0.444881      0.251894
  C      -2.944176     -0.057949     -0.785631
  C      -2.212515      0.527320     -1.995796
  C      -3.814755     -1.225808     -1.244356
  C      -2.443613     -1.365972      1.295772
  C      -3.476558     -0.759565      2.254478
  C      -1.262802     -1.979831      2.049098
  H       4.510116      1.268246     -3.051356
  H       5.050507     -0.427524     -3.185148
  H       3.308354     -0.051016     -3.068523
  H       4.196183     -0.891734     -0.870755
  H       5.395426      0.426533     -0.850815
  H       4.009925      2.288286      2.751496
  H       5.265924      1.821494      1.558817
  H       4.143129      3.169842      1.181088
  H       0.355897      0.570337     -0.767342
  H       0.703769     -0.374417      0.704769
  H      -1.614636      1.636577      0.416053
  H      -1.233505      0.720548      1.859393
  H      -3.629489      0.732462     -0.399066
  H      -1.622627      1.419671     -1.737819
  H      -2.934307      0.826079     -2.770934
  H      -1.525595     -0.221155     -2.424168
  H      -4.498300     -1.584508     -0.461941
  H      -4.435680     -0.905227     -2.094186
  H      -3.191536     -2.072096     -1.578311
  H      -2.928692     -2.204566      0.776403
  H      -4.351696     -0.372342      1.708428
  H      -3.834703     -1.517456      2.968510
  H      -3.047048      0.070590      2.838758
  H      -0.559920     -2.452017      1.345277
  H      -0.707910     -1.234347      2.642052
  H      -1.617889     -2.755163      2.745392
42
Coordinates from ORCA-job opt E -1378.786353641390
  C       4.263068      0.093962     -2.654178
  C       4.389468      0.106884     -1.148829
  O       3.405965      1.011396     -0.624758
  P       3.092992      1.050261      0.964714
  C       4.222378      2.244948      1.685073
  O       3.112695     -0.304760      1.601117
  S       1.232242      2.001860      0.992344
  C       0.261706      0.617012      0.286515
  C      -1.194021      0.697244      0.740681
  N      -1.968130     -0.423643      0.226130
  C      -2.965996     -0.032208     -0.779818
  C      -2.276769      0.601902     -1.990051
  C      -3.821729     -1.206762     -1.249011
  C      -2.392802     -1.379726      1.256942
  C      -3.413174     -0.818776      2.255771
  C      -1.185632     -1.994210      1.966136
  H       4.430394      1.099036     -3.069126
  H       5.005503     -0.589947     -3.090244
  H       3.258981     -0.243166     -2.952853
  H       4.221172     -0.895576     -0.725093
  H       5.394143      0.441339     -0.838321
  H       3.976148      2.376298      2.747576
  H       5.245174      1.850563      1.595442
  H       4.151841      3.204363      1.154515
  H       0.337830      0.649920     -0.808954
  H       0.715308     -0.318825      0.640887
  H      -1.633533      1.658984      0.421934
  H      -1.215926      0.724528      1.842767
  H      -3.658724      0.731919     -0.356680
  H      -1.698536      1.498557     -1.723058
  H      -3.024217      0.906370     -2.737942
  H      -1.587855     -0.120904     -2.457407
  H      -4.486272     -1.594010     -0.464137
  H      -4.461193     -0.881547     -2.082890
  H      -3.188145     -2.034442     -1.608153
  H      -2.876659     -2.211599      0.725928
  H      -4.305542     -0.428545      1.741513
  H      -3.744512     -1.603587      2.952940
  H      -2.983964     -0.001124      2.856989
  H      -0.490746     -2.432945      1.233796
  H      -0.630137     -1.257129      2.568484
  H      -1.512796     -2.793916      2.647863
42
Coordinates from ORCA-job opt E -1378.786419134590
  C       4.197140     -0.056824     -2.580918
  C       4.384682      0.088060     -1.089091
  O       3.402382      1.012874     -0.597290
  P       3.076646      1.095590      0.987981
  C       4.207565      2.300887      1.685303
  O       3.081237     -0.243803      1.656637
  S       1.222629      2.056455      0.968748
  C       0.261030      0.671418      0.246062
  C      -1.187074      0.711451      0.730615
  N      -1.954481     -0.406764      0.201307
  C      -2.980144     -0.005350     -0.772261
  C      -2.329149      0.670870     -1.981214
  C      -3.827824     -1.180818     -1.255083
  C      -2.344114     -1.397167      1.213780
  C      -3.350279     -0.876637      2.248252
  C      -1.116634     -2.014927      1.883508
  H       4.321063      0.911694     -3.086876
  H       4.941450     -0.757739     -2.985214
  H       3.192975     -0.444205     -2.807688
  H       4.258519     -0.876079     -0.573260
  H       5.390268      0.471746     -0.849469
  H       3.945143      2.473668      2.737799
  H       5.224044      1.884784      1.630202
  H       4.163236      3.242547      1.122607
  H       0.316831      0.733265     -0.849153
  H       0.734615     -0.264844      0.570770
  H      -1.648111      1.673293      0.446603
  H      -1.185731      0.707967      1.833169
  H      -3.673818      0.735489     -0.312695
  H      -1.751412      1.564615     -1.706267
  H      -3.099996      0.988703     -2.698903
  H      -1.649744     -0.032889     -2.489457
  H      -4.475470     -1.594539     -0.469837
  H      -4.482684     -0.846361     -2.072724
  H      -3.188592     -1.991396     -1.640986
  H      -2.829756     -2.219000      0.668909
  H      -4.254382     -0.476773      1.763859
  H      -3.663186     -1.686748      2.924189
  H      -2.917578     -0.076527      2.869737
  H      -0.428972     -2.421993      1.126957
  H      -0.560082     -1.288183      2.496780
  H      -1.422241     -2.835810      2.549167
42
Coordinates from ORCA-job opt E -1378.786489121027
  C       4.124580     -0.199260     -2.497260
  C       4.366337      0.052835     -1.027855
  O       3.401455      1.012620     -0.568363
  P       3.050282      1.137564      1.008853
  C       4.185600      2.342672      1.698142
  O       3.024544     -0.185785      1.707848
  S       1.209845      2.120064      0.927260
  C       0.256507      0.732445      0.197299
  C      -1.181146      0.733691      0.713315
  N      -1.937982     -0.385368      0.172640
  C      -2.994745      0.018890     -0.765310
  C      -2.386836      0.734992     -1.974230
  C      -3.831314     -1.161686     -1.255694
  C      -2.282887     -1.408936      1.168027
  C      -3.274741     -0.934103      2.238051
  C      -1.027299     -2.015338      1.794590
  H       4.227976      0.730084     -3.075885
  H       4.856407     -0.927429     -2.875605
  H       3.114079     -0.602937     -2.658810
  H       4.259848     -0.870846     -0.438977
  H       5.378180      0.453882     -0.852021
  H       3.901819      2.551977      2.738517
  H       5.193660      1.903418      1.681285
  H       4.174246      3.267980      1.107590
  H       0.289270      0.817872     -0.897089
  H       0.752801     -0.201640      0.494026
  H      -1.665837      1.693504      0.463597
  H      -1.154061      0.701908      1.814870
  H      -3.690144      0.734716     -0.270508
  H      -1.815533      1.631025     -1.693554
  H      -3.181704      1.057320     -2.663192
  H      -1.710980      0.054616     -2.518018
  H      -4.451002     -1.607196     -0.465206
  H      -4.512116     -0.821166     -2.049177
  H      -3.185866     -1.949342     -1.676997
  H      -2.764800     -2.226961      0.613985
  H      -4.195940     -0.536836      1.784729
  H      -3.558948     -1.768012      2.897665
  H      -2.842660     -0.144047      2.872735
  H      -0.348527     -2.389185      1.013256
  H      -0.472033     -1.290979      2.411795
  H      -1.300336     -2.857023      2.448231
42
Coordinates from ORCA-job opt E -1378.786619821291
  C       3.869833     -0.555481     -2.236008
  C       4.272378     -0.046128     -0.871927
  O       3.355407      0.990899     -0.490744
  P       2.964538      1.236143      1.062019
  C       4.136522      2.420061      1.724555
  O       2.843320     -0.037221      1.840091
  S       1.181690      2.295656      0.832579
  C       0.240107      0.913261      0.075395
  C      -1.163170      0.805815      0.666357
  N      -1.883012     -0.323351      0.098387
  C      -3.012469      0.069710     -0.753945
  C      -2.510837      0.886665     -1.948008
  C      -3.809928     -1.127596     -1.268347
  C      -2.106664     -1.425099      1.043831
  C      -3.053540     -1.076117      2.199715
  C      -0.782762     -1.994497      1.554333
  H       3.890174      0.255502     -2.978236
  H       4.567783     -1.340738     -2.560576
  H       2.854177     -0.979049     -2.204924
  H       4.240817     -0.847716     -0.118690
  H       5.290916      0.374967     -0.882143
  H       3.818240      2.716461      2.733405
  H       5.114806      1.921924      1.788775
  H       4.208878      3.301984      1.075166
  H       0.207656      1.063715     -1.011784
  H       0.792085     -0.012157      0.289475
  H      -1.712068      1.748667      0.498992
  H      -1.072804      0.714461      1.761133
  H      -3.716879      0.714842     -0.181012
  H      -1.970416      1.793996     -1.643571
  H      -3.357987      1.205230     -2.573519
  H      -1.830851      0.276889     -2.566686
  H      -4.358887     -1.651849     -0.473900
  H      -4.551778     -0.783073     -2.003143
  H      -3.147452     -1.851790     -1.769406
  H      -2.577545     -2.234298      0.467767
  H      -4.019150     -0.699024      1.829218
  H      -3.255532     -1.966298      2.814571
  H      -2.623443     -0.308894      2.863079
  H      -0.135807     -2.281473      0.711694
  H      -0.228206     -1.277675      2.180963
  H      -0.968140     -2.887326      2.169621
42
Coordinates from ORCA-job opt E -1378.786961177166
  C       3.662504     -0.774078     -2.017276
  C       4.190186     -0.133948     -0.754100
  O       3.354838      0.989376     -0.431269
  P       2.912559      1.305693      1.094575
  C       4.097051      2.473432      1.762170
  O       2.721097      0.065874      1.912065
  S       1.172899      2.406674      0.752369
  C       0.232122      1.038396     -0.034906
  C      -1.135252      0.848927      0.616665
  N      -1.838075     -0.285152      0.036791
  C      -3.021686      0.095760     -0.745122
  C      -2.607370      0.970117     -1.931900
  C      -3.800845     -1.111082     -1.265512
  C      -1.974138     -1.429521      0.948087
  C      -2.866657     -1.156706      2.166290
  C      -0.606453     -1.972601      1.364153
  H       3.658181     -0.053580     -2.847869
  H       4.301105     -1.624146     -2.298861
  H       2.636106     -1.140726     -1.863435
  H       4.179031     -0.843256      0.087232
  H       5.221250      0.231752     -0.884579
  H       3.745898      2.825453      2.742016
  H       5.049848      1.940251      1.894049
  H       4.233883      3.323678      1.081599
  H       0.143947      1.247344     -1.109038
  H       0.817685      0.119067      0.099049
  H      -1.729074      1.774181      0.518711
  H      -0.984199      0.715708      1.700319
  H      -3.717826      0.694347     -0.114633
  H      -2.085770      1.886681     -1.621489
  H      -3.493998      1.276811     -2.506826
  H      -1.936093      0.407080     -2.601900
  H      -4.284415     -1.688197     -0.465124
  H      -4.594270     -0.767414     -1.944884
  H      -3.140011     -1.787134     -1.831907
  H      -2.450424     -2.231665      0.366592
  H      -3.859668     -0.790253      1.863351
  H      -3.014155     -2.078158      2.750088
  H      -2.421924     -0.407878      2.841082
  H       0.000364     -2.210622      0.477424
  H      -0.038020     -1.259827      1.982978
  H      -0.730229     -2.890660      1.957533
42
Coordinates from ORCA-job opt E -1378.787989991745
  C       3.251258     -1.081660     -1.607951
  C       3.991271     -0.304202     -0.543021
  O       3.308767      0.941690     -0.327170
  P       2.810572      1.409749      1.140747
  C       4.034402      2.545961      1.790114
  O       2.489774      0.255056      2.038851
  S       1.173163      2.588197      0.601724
  C       0.224112      1.235095     -0.205028
  C      -1.070489      0.917562      0.538383
  N      -1.749225     -0.221656     -0.059820
  C      -3.009270      0.130584     -0.727000
  C      -2.731633      1.088743     -1.888896
  C      -3.761879     -1.088296     -1.258423
  C      -1.739362     -1.429047      0.777006
  C      -2.533340     -1.291872      2.083096
  C      -0.311665     -1.913138      1.034588
  H       3.195508     -0.506600     -2.543550
  H       3.775858     -2.026497     -1.813105
  H       2.227656     -1.312083     -1.274201
  H       4.027345     -0.864032      0.403491
  H       5.022604     -0.070480     -0.849409
  H       3.648291      3.007343      2.709651
  H       4.931548      1.958553      2.033798
  H       4.279802      3.320346      1.052169
  H       0.037248      1.520411     -1.248375
  H       0.857305      0.338457     -0.196800
  H      -1.724968      1.806232      0.551605
  H      -0.819685      0.726727      1.594546
  H      -3.685094      0.654709     -0.013607
  H      -2.240678      2.016966     -1.563283
  H      -3.672459      1.371712     -2.384404
  H      -2.077957      0.602578     -2.632592
  H      -4.153229     -1.733904     -0.459968
  H      -4.620869     -0.753062     -1.857512
  H      -3.111793     -1.694452     -1.909978
  H      -2.220509     -2.219482      0.183901
  H      -3.566538     -0.962996      1.891914
  H      -2.581676     -2.258170      2.608028
  H      -2.070126     -0.566979      2.771418
  H       0.222482     -2.061852      0.083790
  H       0.273621     -1.205792      1.643462
  H      -0.330139     -2.870421      1.576366
42
Coordinates from ORCA-job opt E -1378.789023309146
  C       3.272360     -1.133131     -1.550742
  C       3.981902     -0.367322     -0.456483
  O       3.354633      0.915929     -0.297460
  P       2.789046      1.428755      1.130478
  C       3.987945      2.584746      1.792595
  O       2.431253      0.305284      2.053998
  S       1.179775      2.610634      0.502403
  C       0.203219      1.269403     -0.286138
  C      -1.048293      0.918142      0.515222
  N      -1.746410     -0.216742     -0.071554
  C      -3.022520      0.144677     -0.702753
  C      -2.771349      1.119584     -1.856971
  C      -3.788062     -1.066952     -1.231833
  C      -1.713113     -1.435119      0.747815
  C      -2.454995     -1.310335      2.084930
  C      -0.280217     -1.933347      0.939762
  H       3.297079     -0.574231     -2.497600
  H       3.762916     -2.104630     -1.709362
  H       2.221638     -1.311420     -1.275764
  H       3.939855     -0.913840      0.497534
  H       5.038668     -0.188238     -0.707064
  H       3.566229      3.066836      2.685195
  H       4.879746      2.010042      2.081194
  H       4.254258      3.339486      1.041326
  H      -0.040447      1.585130     -1.308933
  H       0.844899      0.381701     -0.347319
  H      -1.712996      1.797459      0.579033
  H      -0.740687      0.708265      1.552807
  H      -3.682315      0.659886      0.032086
  H      -2.289012      2.049675     -1.523460
  H      -3.720969      1.397017     -2.338287
  H      -2.118327      0.653012     -2.613096
  H      -4.159023     -1.723252     -0.432350
  H      -4.662931     -0.724517     -1.803292
  H      -3.155199     -1.665173     -1.907216
  H      -2.221924     -2.214889      0.164096
  H      -3.494944     -0.980289      1.936182
  H      -2.482249     -2.280513      2.604137
  H      -1.964764     -0.589565      2.758568
  H       0.208516     -2.080832     -0.035339
  H       0.339210     -1.235442      1.525039
  H      -0.282402     -2.895883      1.473172
42
Coordinates from ORCA-job opt E -1378.790001174439
  C       3.217767     -1.221113     -1.434800
  C       3.911812     -0.467349     -0.321632
  O       3.376137      0.863828     -0.233062
  P       2.737918      1.450281      1.134673
  C       3.926136      2.616950      1.798346
  O       2.309669      0.380143      2.091302
  S       1.193404      2.653737      0.386731
  C       0.195870      1.325829     -0.388263
  C      -1.005982      0.926851      0.466513
  N      -1.721543     -0.201825     -0.110150
  C      -3.029831      0.155865     -0.675675
  C      -2.850074      1.166605     -1.811757
  C      -3.799415     -1.054673     -1.200487
  C      -1.635541     -1.431454      0.685219
  C      -2.306425     -1.334203      2.061340
  C      -0.188875     -1.913599      0.790355
  H       3.336636     -0.697108     -2.394692
  H       3.647833     -2.228429     -1.534129
  H       2.141963     -1.321736     -1.223156
  H       3.779296     -0.980082      0.642605
  H       4.990713     -0.368888     -0.514224
  H       3.469514      3.147191      2.645303
  H       4.793608      2.042883      2.154621
  H       4.240767      3.329533      1.024666
  H      -0.104732      1.683962     -1.381194
  H       0.844279      0.453044     -0.538073
  H      -1.678211      1.793504      0.596912
  H      -0.635848      0.686306      1.476281
  H      -3.665631      0.640237      0.100720
  H      -2.388519      2.103519     -1.468529
  H      -3.823572      1.425343     -2.254318
  H      -2.205920      0.740446     -2.598862
  H      -4.124578     -1.735910     -0.401636
  H      -4.704342     -0.712631     -1.723565
  H      -3.188130     -1.627694     -1.916659
  H      -2.166369     -2.207594      0.116954
  H      -3.357463     -1.017383      1.971382
  H      -2.292380     -2.310344      2.570008
  H      -1.790297     -0.612826      2.714943
  H       0.241338     -2.048020     -0.214052
  H       0.457397     -1.211794      1.341252
  H      -0.148379     -2.881401      1.313349
42
Coordinates from ORCA-job opt E -1378.790311167614
  C       3.371413     -1.176675     -1.531531
  C       3.952014     -0.484093     -0.318089
  O       3.434965      0.854114     -0.226754
  P       2.719518      1.417110      1.112594
  C       3.871677      2.593723      1.822895
  O       2.259873      0.335879      2.042000
  S       1.201028      2.632917      0.332192
  C       0.195847      1.309686     -0.426854
  C      -0.992167      0.908842      0.448537
  N      -1.733071     -0.213587     -0.106889
  C      -3.042570      0.154894     -0.660043
  C      -2.868992      1.158382     -1.801584
  C      -3.830947     -1.051763     -1.165330
  C      -1.663220     -1.426389      0.714667
  C      -2.332276     -1.290430      2.088884
  C      -0.221415     -1.918774      0.827794
  H       3.602557     -0.616573     -2.449798
  H       3.793428     -2.187955     -1.625556
  H       2.276850     -1.267800     -1.448492
  H       3.712650     -1.032151      0.605253
  H       5.046729     -0.400575     -0.393004
  H       3.379394      3.116242      2.654760
  H       4.733340      2.027114      2.205023
  H       4.206315      3.312166      1.063017
  H      -0.121686      1.690657     -1.406091
  H       0.841776      0.442794     -0.624073
  H      -1.650087      1.783305      0.601878
  H      -0.600256      0.656446      1.445744
  H      -3.664405      0.649643      0.121647
  H      -2.406378      2.097545     -1.465374
  H      -3.844522      1.416503     -2.240178
  H      -2.227452      0.723133     -2.586444
  H      -4.151480     -1.724061     -0.356706
  H      -4.739566     -0.703565     -1.678067
  H      -3.234973     -1.636863     -1.885097
  H      -2.203965     -2.207901      0.163537
  H      -3.380406     -0.965456      1.991084
  H      -2.327804     -2.254245      2.620989
  H      -1.808049     -0.558139      2.723846
  H       0.201700     -2.079570     -0.175921
  H       0.432552     -1.208637      1.359230
  H      -0.187939     -2.875893      1.370861
42
Coordinates from ORCA-job opt E -1378.790934809242
  C       3.254569     -1.269058     -1.362773
  C       3.874164     -0.546949     -0.187719
  O       3.430708      0.820199     -0.163198
  P       2.668755      1.471826      1.108214
  C       3.824631      2.653969      1.804707
  O       2.139503      0.452955      2.070483
  S       1.218475      2.686470      0.204076
  C       0.191344      1.366311     -0.531362
  C      -0.931081      0.908365      0.400253
  N      -1.689073     -0.207702     -0.148680
  C      -3.023517      0.171360     -0.626559
  C      -2.903526      1.208352     -1.745402
  C      -3.832942     -1.022903     -1.129617
  C      -1.585113     -1.445525      0.636405
  C      -2.201704     -1.350245      2.038977
  C      -0.141070     -1.945233      0.679001
  H       3.508003     -0.768012     -2.308651
  H       3.626918     -2.303190     -1.406444
  H       2.158265     -1.303386     -1.273251
  H       3.610253     -1.033546      0.763263
  H       4.971632     -0.524790     -0.269366
  H       3.314706      3.235646      2.585228
  H       4.653374      2.086888      2.253098
  H       4.210953      3.320003      1.021976
  H      -0.195604      1.781687     -1.472079
  H       0.838729      0.523334     -0.810453
  H      -1.590688      1.765817      0.626125
  H      -0.471434      0.629433      1.359985
  H      -3.606819      0.641250      0.199063
  H      -2.428448      2.139710     -1.402787
  H      -3.898563      1.474944     -2.131443
  H      -2.298793      0.798454     -2.571415
  H      -4.109603     -1.721617     -0.327315
  H      -4.767266     -0.662794     -1.584465
  H      -3.272672     -1.581764     -1.897381
  H      -2.148765     -2.210776      0.084975
  H      -3.252151     -1.021608      1.990363
  H      -2.179526     -2.329879      2.540805
  H      -1.652655     -0.638870      2.676461
  H       0.241113     -2.078987     -0.344940
  H       0.535099     -1.252178      1.204382
  H      -0.090181     -2.917960      1.192016
42
Coordinates from ORCA-job opt E -1378.791200234755
  C       3.263246     -1.289344     -1.311328
  C       3.837692     -0.582876     -0.105194
  O       3.445198      0.799634     -0.115822
  P       2.638135      1.495855      1.102313
  C       3.776150      2.690177      1.808319
  O       2.059036      0.508874      2.068670
  S       1.236902      2.688629      0.098037
  C       0.200941      1.353914     -0.600269
  C      -0.891277      0.891680      0.363084
  N      -1.673532     -0.212804     -0.173003
  C      -3.021807      0.184195     -0.599843
  C      -2.934435      1.233921     -1.710824
  C      -3.861749     -0.994320     -1.090401
  C      -1.556709     -1.456557      0.600380
  C      -2.122888     -1.360852      2.023486
  C      -0.117919     -1.972130      0.591212
  H       3.592731     -0.805610     -2.242640
  H       3.598920     -2.336802     -1.325992
  H       2.162844     -1.282857     -1.286658
  H       3.498136     -1.050483      0.831120
  H       4.938076     -0.602648     -0.119456
  H       3.243703      3.298850      2.552153
  H       4.583091      2.130815      2.303451
  H       4.195809      3.330059      1.021000
  H      -0.216319      1.766455     -1.529459
  H       0.848767      0.515692     -0.895122
  H      -1.537043      1.751007      0.620299
  H      -0.399814      0.599244      1.303071
  H      -3.570293      0.648772      0.252303
  H      -2.440423      2.157408     -1.376335
  H      -3.941405      1.511685     -2.055960
  H      -2.366131      0.829669     -2.564828
  H      -4.116073     -1.702799     -0.289816
  H      -4.808126     -0.617185     -1.504621
  H      -3.336333     -1.545285     -1.887703
  H      -2.147892     -2.211239      0.063299
  H      -3.170329     -1.020581      2.013524
  H      -2.093839     -2.343132      2.519531
  H      -1.543738     -0.658595      2.644627
  H       0.228560     -2.102564     -0.445595
  H       0.581184     -1.289409      1.099265
  H      -0.061046     -2.948463      1.096282
42
Coordinates from ORCA-job opt E -1378.791359716473
  C       3.355297     -1.277024     -1.330088
  C       3.818926     -0.619912     -0.050897
  O       3.482393      0.776484     -0.074362
  P       2.610241      1.496123      1.083337
  C       3.713979      2.699960      1.825867
  O       1.974769      0.524658      2.029884
  S       1.265784      2.666197     -0.017347
  C       0.214215      1.318463     -0.666669
  C      -0.861277      0.879374      0.325154
  N      -1.670267     -0.215975     -0.187961
  C      -3.028741      0.196230     -0.570197
  C      -2.971768      1.250975     -1.678832
  C      -3.895052     -0.971883     -1.039382
  C      -1.547642     -1.456894      0.588539
  C      -2.082412     -1.351409      2.022429
  C      -0.112151     -1.979567      0.553490
  H       3.808411     -0.791243     -2.206880
  H       3.647737     -2.337509     -1.330819
  H       2.259851     -1.223650     -1.426848
  H       3.357377     -1.087715      0.831397
  H       4.912257     -0.686668      0.057904
  H       3.149511      3.326305      2.530185
  H       4.492611      2.147564      2.371508
  H       4.175959      3.323747      1.049210
  H      -0.220616      1.718843     -1.592993
  H       0.857870      0.474021     -0.956141
  H      -1.486433      1.751050      0.592775
  H      -0.351261      0.585310      1.254190
  H      -3.543304      0.661134      0.302491
  H      -2.456201      2.167912     -1.360832
  H      -3.988996      1.539933     -1.982534
  H      -2.444991      0.845142     -2.558238
  H      -4.128090     -1.684690     -0.236304
  H      -4.851636     -0.583689     -1.418331
  H      -3.401626     -1.519543     -1.858963
  H      -2.154615     -2.208883      0.064780
  H      -3.127209     -1.004088      2.035190
  H      -2.049234     -2.332506      2.520601
  H      -1.484335     -0.651869      2.628685
  H       0.216824     -2.109260     -0.488957
  H       0.595327     -1.299119      1.053477
  H      -0.051482     -2.956329      1.057038
42
Coordinates from ORCA-job opt E -1378.791458701931
  C       3.376313     -1.280426     -1.334926
  C       3.829277     -0.619184     -0.053672
  O       3.484298      0.775446     -0.081641
  P       2.631782      1.496765      1.089875
  C       3.747249      2.698938      1.815130
  O       2.014560      0.523772      2.047198
  S       1.263816      2.660555      0.012533
  C       0.210499      1.313989     -0.643036
  C      -0.885948      0.892188      0.333348
  N      -1.684457     -0.208104     -0.186798
  C      -3.045018      0.195398     -0.573046
  C      -2.991336      1.248262     -1.683330
  C      -3.901084     -0.978923     -1.045487
  C      -1.555470     -1.451836      0.584687
  C      -2.098505     -1.359623      2.016225
  C      -0.114700     -1.961985      0.556544
  H       3.830454     -0.792193     -2.209801
  H       3.676485     -2.338808     -1.333591
  H       2.280912     -1.233781     -1.435047
  H       3.363220     -1.088441      0.825436
  H       4.922220     -0.682283      0.063390
  H       3.196462      3.327796      2.528062
  H       4.532940      2.145221      2.349233
  H       4.199066      3.322235      1.031821
  H      -0.205464      1.703531     -1.582403
  H       0.854509      0.460114     -0.901075
  H      -1.515710      1.767148      0.577476
  H      -0.395958      0.610621      1.276658
  H      -3.564398      0.658213      0.297718
  H      -2.474307      2.166316     -1.370230
  H      -4.010180      1.535180     -1.983981
  H      -2.470680      0.841371     -2.565511
  H      -4.135101     -1.692118     -0.243000
  H      -4.857682     -0.598204     -1.432051
  H      -3.398094     -1.524031     -1.860965
  H      -2.152294     -2.206474      0.052881
  H      -3.146439     -1.021676      2.027350
  H      -2.059144     -2.343972      2.507695
  H      -1.509325     -0.659641      2.630706
  H       0.227336     -2.076909     -0.483569
  H       0.580294     -1.281127      1.072979
  H      -0.050396     -2.943321      1.050773
42
Coordinates from ORCA-job opt E -1378.791527402125
  C       3.403500     -1.308343     -1.323834
  C       3.854785     -0.634897     -0.046667
  O       3.499105      0.757539     -0.075116
  P       2.627019      1.474756      1.085922
  C       3.741802      2.669230      1.821864
  O       2.000804      0.501918      2.038746
  S       1.270318      2.664143      0.018604
  C       0.191257      1.347963     -0.652665
  C      -0.901435      0.915281      0.326818
  N      -1.694723     -0.191517     -0.191330
  C      -3.060514      0.196555     -0.571945
  C      -3.021153      1.242406     -1.687531
  C      -3.904557     -0.990809     -1.032080
  C      -1.548720     -1.434854      0.577465
  C      -2.092144     -1.356559      2.009868
  C      -0.099731     -1.920711      0.548467
  H       3.844375     -0.816353     -2.203258
  H       3.719079     -2.362170     -1.322047
  H       2.307992     -1.278684     -1.419270
  H       3.400317     -1.106255      0.837418
  H       4.948917     -0.688026      0.063118
  H       3.187802      3.301116      2.529628
  H       4.520157      2.110296      2.361474
  H       4.205158      3.290292      1.043263
  H      -0.229549      1.766191     -1.576999
  H       0.822127      0.494978     -0.940316
  H      -1.536827      1.784695      0.574164
  H      -0.407930      0.637393      1.268882
  H      -3.579694      0.660251      0.298082
  H      -2.500720      2.163218     -1.385481
  H      -4.043907      1.525876     -1.978716
  H      -2.510211      0.830133     -2.573106
  H      -4.126604     -1.701579     -0.223505
  H      -4.867601     -0.625111     -1.417588
  H      -3.397643     -1.535942     -1.845360
  H      -2.133362     -2.197358      0.043597
  H      -3.144967     -1.033092      2.023689
  H      -2.038921     -2.342465      2.497173
  H      -1.511773     -0.651586      2.626688
  H       0.246456     -2.022949     -0.491511
  H       0.580936     -1.230431      1.072253
  H      -0.019219     -2.904537      1.035698
42
Coordinates from ORCA-job opt E -1378.791620045470
  C       3.445732     -1.320649     -1.299123
  C       3.850383     -0.641028     -0.009642
  O       3.499869      0.751481     -0.062421
  P       2.620390      1.488555      1.080071
  C       3.730023      2.695961      1.802275
  O       1.987963      0.532410      2.045457
  S       1.271829      2.659916     -0.017445
  C       0.193659      1.330728     -0.665581
  C      -0.897254      0.909623      0.320548
  N      -1.701310     -0.190276     -0.195496
  C      -3.068793      0.208584     -0.555522
  C      -3.032927      1.259134     -1.666417
  C      -3.927831     -0.969695     -1.011051
  C      -1.550398     -1.443289      0.557683
  C      -2.072953     -1.378534      1.998536
  C      -0.105160     -1.939038      0.503084
  H       3.923397     -0.836493     -2.163592
  H       3.755907     -2.375939     -1.278707
  H       2.354302     -1.286261     -1.437090
  H       3.360231     -1.105139      0.859298
  H       4.939266     -0.697455      0.143390
  H       3.172192      3.340285      2.495669
  H       4.505322      2.145610      2.355050
  H       4.198036      3.302441      1.014984
  H      -0.230602      1.735139     -1.594825
  H       0.825626      0.475177     -0.941362
  H      -1.524895      1.784593      0.566221
  H      -0.403812      0.630665      1.262988
  H      -3.573739      0.672232      0.322996
  H      -2.491726      2.169661     -1.369625
  H      -4.055879      1.560343     -1.938537
  H      -2.542742      0.842904     -2.562005
  H      -4.147272     -1.682325     -0.203432
  H      -4.891697     -0.594200     -1.385083
  H      -3.433766     -1.515155     -1.832059
  H      -2.147761     -2.195796      0.023932
  H      -3.123589     -1.048976      2.031298
  H      -2.018688     -2.370342      2.473636
  H      -1.479524     -0.684222      2.614997
  H       0.226721     -2.031405     -0.542531
  H       0.586653     -1.259944      1.026484
  H      -0.025181     -2.929281      0.977507
42
Coordinates from ORCA-job opt E -1378.791695180839
  C       3.486439     -1.349345     -1.261370
  C       3.854199     -0.648460      0.027006
  O       3.492765      0.739015     -0.055984
  P       2.609669      1.492052      1.072296
  C       3.716334      2.705837      1.789423
  O       1.967101      0.548682      2.043207
  S       1.274999      2.654255     -0.052433
  C       0.191417      1.319168     -0.681308
  C      -0.898408      0.912924      0.310666
  N      -1.710978     -0.181283     -0.201647
  C      -3.083354      0.220834     -0.539362
  C      -3.061911      1.277528     -1.645842
  C      -3.950590     -0.953269     -0.989659
  C      -1.544009     -1.442750      0.533170
  C      -2.044209     -1.396136      1.982556
  C      -0.098119     -1.933015      0.452407
  H       3.980812     -0.872769     -2.120702
  H       3.805259     -2.401354     -1.219186
  H       2.398058     -1.325754     -1.424797
  H       3.347006     -1.104904      0.890351
  H       4.939379     -0.693240      0.208037
  H       3.154275      3.359808      2.470030
  H       4.485348      2.159231      2.354479
  H       4.192779      3.299796      0.997877
  H      -0.235360      1.711227     -1.615193
  H       0.820471      0.457922     -0.945095
  H      -1.519946      1.793331      0.550378
  H      -0.406650      0.635450      1.255622
  H      -3.576551      0.679365      0.348635
  H      -2.507520      2.181394     -1.355012
  H      -4.087150      1.588070     -1.897802
  H      -2.589096      0.863114     -2.551529
  H      -4.161159     -1.669887     -0.183479
  H      -4.918098     -0.573841     -1.349902
  H      -3.467970     -1.494988     -1.819721
  H      -2.147631     -2.190695     -0.000067
  H      -3.095072     -1.070472      2.035104
  H      -1.979146     -2.392749      2.445796
  H      -1.443665     -0.706321      2.597258
  H       0.219536     -2.013468     -0.598568
  H       0.598309     -1.256776      0.973310
  H      -0.007562     -2.927526      0.915605
42
Coordinates from ORCA-job opt E -1378.791793815675
  C       3.535884     -1.383813     -1.205632
  C       3.898312     -0.633091      0.054730
  O       3.487542      0.737452     -0.063927
  P       2.604410      1.492977      1.061801
  C       3.706204      2.714624      1.775708
  O       1.962919      0.552517      2.035754
  S       1.272512      2.647665     -0.073574
  C       0.187735      1.308516     -0.692914
  C      -0.900332      0.909210      0.303215
  N      -1.726163     -0.174314     -0.208875
  C      -3.101133      0.236520     -0.525340
  C      -3.091477      1.296958     -1.629868
  C      -3.981721     -0.930699     -0.967858
  C      -1.551300     -1.445741      0.505297
  C      -2.029739     -1.414767      1.962797
  C      -0.109043     -1.939988      0.399257
  H       3.998763     -0.914328     -2.086205
  H       3.894018     -2.421755     -1.139152
  H       2.445117     -1.403367     -1.350774
  H       3.421156     -1.081566      0.939138
  H       4.987009     -0.633766      0.219335
  H       3.138991      3.373458      2.447110
  H       4.470419      2.171157      2.350289
  H       4.188734      3.300525      0.982212
  H      -0.242946      1.694293     -1.627929
  H       0.813996      0.444097     -0.954563
  H      -1.514590      1.794179      0.543504
  H      -0.409828      0.625439      1.247761
  H      -3.580547      0.692552      0.371486
  H      -2.520968      2.193211     -1.348415
  H      -4.117307      1.619793     -1.862413
  H      -2.637102      0.880062     -2.543781
  H      -4.184338     -1.649719     -0.162021
  H      -4.951724     -0.544017     -1.313071
  H      -3.514595     -1.471494     -1.807134
  H      -2.166195     -2.184796     -0.027403
  H      -3.077745     -1.084073      2.034104
  H      -1.963381     -2.416967      2.413397
  H      -1.417186     -0.735043      2.576939
  H       0.194108     -2.009694     -0.656680
  H       0.597240     -1.272534      0.918084
  H      -0.015706     -2.939672      0.850169
42
Coordinates from ORCA-job opt E -1378.791912283171
  C       3.569225     -1.417067     -1.151809
  C       3.944457     -0.606392      0.066255
  O       3.469976      0.739744     -0.086630
  P       2.599436      1.493185      1.049349
  C       3.703699      2.714069      1.764409
  O       1.962636      0.550057      2.023589
  S       1.264261      2.645918     -0.081392
  C       0.185306      1.303466     -0.701789
  C      -0.901390      0.904255      0.295588
  N      -1.736395     -0.171670     -0.217414
  C      -3.113082      0.245488     -0.517517
  C      -3.114832      1.316539     -1.612603
  C      -4.001034     -0.915753     -0.962003
  C      -1.560076     -1.448816      0.485174
  C      -2.029018     -1.426667      1.946579
  C      -0.120688     -1.947854      0.367310
  H       3.979677     -0.960997     -2.064946
  H       3.973452     -2.436200     -1.062721
  H       2.475855     -1.485120     -1.255220
  H       3.518191     -1.042005      0.982571
  H       5.037475     -0.554600      0.190048
  H       3.137283      3.372010      2.437405
  H       4.467127      2.168984      2.338646
  H       4.186784      3.300233      0.971482
  H      -0.248310      1.686626     -1.636517
  H       0.813188      0.439844     -0.965882
  H      -1.510804      1.791555      0.540044
  H      -0.411034      0.613685      1.237868
  H      -3.583537      0.692303      0.388701
  H      -2.536808      2.208074     -1.330914
  H      -4.141987      1.645976     -1.828624
  H      -2.673209      0.906829     -2.535785
  H      -4.194811     -1.642748     -0.161145
  H      -4.974295     -0.523742     -1.291497
  H      -3.545899     -1.448775     -1.812805
  H      -2.180805     -2.182643     -0.048085
  H      -3.075205     -1.092315      2.026453
  H      -1.963941     -2.432019      2.390314
  H      -1.410552     -0.753138      2.561706
  H       0.176389     -2.011721     -0.690856
  H       0.592292     -1.287678      0.886489
  H      -0.028997     -2.950923      0.810728
42
Coordinates from ORCA-job opt E -1378.791968240796
  C       3.595463     -1.469194     -1.071140
  C       4.007439     -0.550356      0.055151
  O       3.405213      0.737954     -0.140786
  P       2.579851      1.487826      1.029780
  C       3.707672      2.685610      1.751542
  O       1.948461      0.539319      2.002581
  S       1.243772      2.657289     -0.075417
  C       0.176649      1.311306     -0.702889
  C      -0.908481      0.903655      0.292950
  N      -1.747516     -0.166433     -0.226488
  C      -3.124773      0.252575     -0.514299
  C      -3.132654      1.337311     -1.594613
  C      -4.014369     -0.903763     -0.969605
  C      -1.569710     -1.448522      0.465633
  C      -2.036713     -1.438996      1.928625
  C      -0.130471     -1.945753      0.342194
  H       3.886571     -1.046940     -2.044543
  H       4.087320     -2.446570     -0.957795
  H       2.505576     -1.623182     -1.069222
  H       3.697532     -0.954109      1.030949
  H       5.098663     -0.402718      0.075032
  H       3.156217      3.338588      2.441749
  H       4.470911      2.124147      2.310327
  H       4.188518      3.278918      0.962482
  H      -0.261528      1.694104     -1.635530
  H       0.811952      0.454651     -0.974487
  H      -1.514645      1.790881      0.545798
  H      -0.418714      0.604222      1.231929
  H      -3.592261      0.685929      0.400009
  H      -2.550410      2.224496     -1.306057
  H      -4.160429      1.672466     -1.797994
  H      -2.697865      0.938677     -2.526156
  H      -4.203262     -1.640830     -0.176665
  H      -4.989690     -0.508213     -1.288707
  H      -3.564516     -1.426455     -1.829792
  H      -2.189276     -2.180208     -0.071974
  H      -3.083361     -1.106733      2.012527
  H      -1.969867     -2.447448      2.365110
  H      -1.418966     -0.768891      2.548255
  H       0.166428     -2.000021     -0.716819
  H       0.583979     -1.291502      0.867116
  H      -0.038708     -2.953090      0.775794
42
Coordinates from ORCA-job opt E -1378.792049672684
  C       3.624574     -1.476167     -1.065143
  C       4.003452     -0.569450      0.082647
  O       3.424275      0.729167     -0.123414
  P       2.584676      1.490054      1.031322
  C       3.709614      2.694977      1.742799
  O       1.950741      0.550640      2.011711
  S       1.250161      2.652102     -0.084763
  C       0.172665      1.316123     -0.717769
  C      -0.908900      0.904601      0.281840
  N      -1.750988     -0.165014     -0.234897
  C      -3.132517      0.254270     -0.507350
  C      -3.155972      1.341275     -1.584884
  C      -4.024405     -0.902779     -0.956010
  C      -1.568985     -1.448234      0.455020
  C      -2.029093     -1.442414      1.919805
  C      -0.128857     -1.942115      0.324493
  H       3.957720     -1.051402     -2.023732
  H       4.100520     -2.459875     -0.939202
  H       2.534697     -1.618434     -1.105610
  H       3.652467     -0.976226      1.043115
  H       5.095047     -0.436812      0.144428
  H       3.157499      3.356978      2.423876
  H       4.471082      2.139700      2.310132
  H       4.193333      3.279932      0.949083
  H      -0.267815      1.711949     -1.643754
  H       0.803879      0.459968     -0.999719
  H      -1.513188      1.790716      0.543006
  H      -0.411958      0.602201      1.215585
  H      -3.588738      0.685793      0.413379
  H      -2.570676      2.229092     -1.304255
  H      -4.187751      1.674725     -1.771111
  H      -2.740294      0.944770     -2.525591
  H      -4.204994     -1.641784     -0.162833
  H      -5.003411     -0.508676     -1.265624
  H      -3.580762     -1.422709     -1.821091
  H      -2.189758     -2.179318     -0.082102
  H      -3.075786     -1.111936      2.010790
  H      -1.958695     -2.452235      2.352738
  H      -1.408514     -0.773830      2.538246
  H       0.166371     -1.986997     -0.735391
  H       0.583792     -1.289950      0.854547
  H      -0.034508     -2.952676      0.750237
42
Coordinates from ORCA-job opt E -1378.792085324494
  C       3.636722     -1.475019     -1.081747
  C       3.986436     -0.583248      0.087047
  O       3.416046      0.719884     -0.120180
  P       2.582589      1.488044      1.035377
  C       3.714433      2.690377      1.738546
  O       1.949393      0.554624      2.022156
  S       1.249182      2.653284     -0.080440
  C       0.167739      1.321820     -0.717105
  C      -0.914301      0.909229      0.281412
  N      -1.750892     -0.164961     -0.234697
  C      -3.133878      0.249853     -0.509333
  C      -3.160004      1.340890     -1.582564
  C      -4.019205     -0.909979     -0.963140
  C      -1.566284     -1.445059      0.461446
  C      -2.028328     -1.435240      1.925029
  C      -0.123621     -1.934240      0.333876
  H       3.999347     -1.041581     -2.025629
  H       4.103434     -2.462822     -0.953385
  H       2.547834     -1.611741     -1.154311
  H       3.606641     -1.000123      1.032155
  H       5.076465     -0.456705      0.181528
  H       3.168671      3.351252      2.425833
  H       4.482190      2.135372      2.297496
  H       4.189576      3.276924      0.940720
  H      -0.270504      1.722344     -1.642211
  H       0.798969      0.466686     -1.000103
  H      -1.520907      1.793741      0.542444
  H      -0.415547      0.610061      1.215456
  H      -3.593142      0.677807      0.411639
  H      -2.580341      2.230719     -1.296887
  H      -4.193797      1.669285     -1.767441
  H      -2.744438      0.951495     -2.526280
  H      -4.199768     -1.651331     -0.172107
  H      -4.999058     -0.519621     -1.274977
  H      -3.569763     -1.426173     -1.827478
  H      -2.183411     -2.180074     -0.074528
  H      -3.077222     -1.111114      2.013916
  H      -1.951741     -2.442752      2.362272
  H      -1.412059     -0.760109      2.540688
  H       0.172733     -1.981384     -0.725545
  H       0.585484     -1.277249      0.862698
  H      -0.025672     -2.943167      0.762908
42
Coordinates from ORCA-job opt E -1378.792104946150
  C       3.648764     -1.482523     -1.080158
  C       3.976155     -0.584932      0.090657
  O       3.389134      0.709689     -0.126411
  P       2.575690      1.488361      1.037367
  C       3.722311      2.683675      1.727680
  O       1.945086      0.563350      2.033780
  S       1.243933      2.659406     -0.074664
  C       0.162011      1.329769     -0.715340
  C      -0.917765      0.911479      0.283021
  N      -1.751052     -0.164282     -0.235150
  C      -3.135024      0.247841     -0.509894
  C      -3.163546      1.344312     -1.577286
  C      -4.015622     -0.913001     -0.969907
  C      -1.565088     -1.444010      0.462159
  C      -2.030419     -1.435498      1.924276
  C      -0.120589     -1.929076      0.336814
  H       4.018048     -1.048251     -2.020997
  H       4.122966     -2.465690     -0.943956
  H       2.562154     -1.630142     -1.164210
  H       3.591105     -1.004490      1.032502
  H       5.063483     -0.444781      0.196330
  H       3.188114      3.344540      2.424010
  H       4.496286      2.125753      2.274923
  H       4.187670      3.270706      0.924540
  H      -0.276594      1.734765     -1.638418
  H       0.795181      0.477699     -1.002314
  H      -1.525543      1.793589      0.549170
  H      -0.415386      0.610715      1.214768
  H      -3.596186      0.671048      0.412285
  H      -2.588240      2.234962     -1.286004
  H      -4.198967      1.669317     -1.759542
  H      -2.748709      0.962718     -2.524555
  H      -4.197360     -1.656779     -0.181433
  H      -4.995536     -0.524688     -1.284104
  H      -3.561080     -1.425843     -1.833519
  H      -2.178913     -2.180382     -0.075753
  H      -3.081026     -1.116554      2.011094
  H      -1.949746     -2.442514      2.361808
  H      -1.418299     -0.757442      2.540765
  H       0.176953     -1.975404     -0.722208
  H       0.585851     -1.269768      0.866351
  H      -0.020204     -2.937644      0.766080
42
Coordinates from ORCA-job opt E -1378.792122418657
  C       3.675777     -1.499288     -1.062681
  C       3.967445     -0.584844      0.104405
  O       3.349022      0.691566     -0.133076
  P       2.563789      1.489739      1.037752
  C       3.731716      2.676192      1.707103
  O       1.935128      0.580862      2.050298
  S       1.236452      2.667259     -0.072624
  C       0.151858      1.340177     -0.715195
  C      -0.923382      0.915169      0.284870
  N      -1.754702     -0.160680     -0.236367
  C      -3.140246      0.249060     -0.506755
  C      -3.173228      1.352504     -1.566607
  C      -4.017091     -0.912093     -0.972694
  C      -1.564586     -1.442896      0.455786
  C      -2.026363     -1.441478      1.918772
  C      -0.119440     -1.924687      0.324156
  H       4.048214     -1.065596     -2.002514
  H       4.168949     -2.470862     -0.911486
  H       2.593787     -1.671209     -1.159560
  H       3.580346     -1.005642      1.044991
  H       5.049799     -0.417554      0.222407
  H       3.213375      3.342209      2.410534
  H       4.510619      2.114627      2.243503
  H       4.188431      3.258326      0.895511
  H      -0.289239      1.750135     -1.634938
  H       0.785608      0.490710     -1.008103
  H      -1.532239      1.794398      0.557831
  H      -0.416869      0.611554      1.213570
  H      -3.601256      0.665878      0.418376
  H      -2.601015      2.243143     -1.269431
  H      -4.210306      1.674972     -1.744361
  H      -2.759776      0.979982     -2.518146
  H      -4.198048     -1.659377     -0.187304
  H      -4.997804     -0.525715     -1.286817
  H      -3.559290     -1.420343     -1.837275
  H      -2.178225     -2.178030     -0.084027
  H      -3.077976     -1.127061      2.009670
  H      -1.940739     -2.449967      2.351948
  H      -1.414850     -0.763856      2.536320
  H       0.174561     -1.965669     -0.736031
  H       0.587622     -1.266580      0.854365
  H      -0.015828     -2.935035      0.748381
42
Coordinates from ORCA-job opt E -1378.792127587109
  C       3.687670     -1.510282     -1.047435
  C       3.959007     -0.586928      0.117374
  O       3.329329      0.681240     -0.133162
  P       2.556399      1.492375      1.037063
  C       3.735288      2.674396      1.695178
  O       1.926159      0.594082      2.058046
  S       1.233850      2.672153     -0.076209
  C       0.146333      1.347220     -0.718735
  C      -0.924126      0.916854      0.284063
  N      -1.755717     -0.158098     -0.238469
  C      -3.142621      0.250683     -0.502814
  C      -3.180229      1.357154     -1.559393
  C      -4.019797     -0.910095     -0.969152
  C      -1.561443     -1.442719      0.447978
  C      -2.018748     -1.447428      1.912424
  C      -0.116120     -1.922000      0.310213
  H       4.065108     -1.078099     -1.985943
  H       4.188925     -2.476006     -0.885997
  H       2.608372     -1.693492     -1.154173
  H       3.567098     -1.006410      1.056615
  H       5.038572     -0.408422      0.244884
  H       3.224164      3.347458      2.397202
  H       4.512497      2.110768      2.231886
  H       4.193097      3.249394      0.879182
  H      -0.298612      1.761192     -1.634792
  H       0.778958      0.499019     -1.017654
  H      -1.533506      1.793967      0.562687
  H      -0.413983      0.610317      1.209710
  H      -3.600771      0.664308      0.425087
  H      -2.608209      2.247570     -1.261284
  H      -4.218168      1.678896     -1.733277
  H      -2.768769      0.987926     -2.513102
  H      -4.197792     -1.659380     -0.184995
  H      -5.001740     -0.524089     -1.279771
  H      -3.563910     -1.415765     -1.836219
  H      -2.175844     -2.176568     -0.092697
  H      -3.070409     -1.134599      2.007677
  H      -1.930839     -2.457564      2.341305
  H      -1.406127     -0.771767      2.531002
  H       0.174872     -1.958270     -0.750966
  H       0.591654     -1.265219      0.840959
  H      -0.009868     -2.933771      0.730259
42
Coordinates from ORCA-job opt E -1378.792141518719
  C       3.724330     -1.533333     -1.013395
  C       3.950775     -0.589285      0.143994
  O       3.289906      0.656842     -0.133042
  P       2.541151      1.493176      1.035168
  C       3.742007      2.664713      1.672832
  O       1.907027      0.615814      2.071792
  S       1.229608      2.678786     -0.083858
  C       0.133375      1.360901     -0.726613
  C      -0.929754      0.922925      0.280690
  N      -1.762045     -0.150645     -0.243373
  C      -3.151984      0.255357     -0.494210
  C      -3.200270      1.365879     -1.546243
  C      -4.030550     -0.905359     -0.958241
  C      -1.557087     -1.440047      0.430486
  C      -2.001695     -1.457602      1.899077
  C      -0.111583     -1.913538      0.277473
  H       4.104901     -1.101671     -1.950875
  H       4.250295     -2.482088     -0.831821
  H       2.652507     -1.748266     -1.135937
  H       3.554990     -1.008049      1.082051
  H       5.023221     -0.380824      0.287243
  H       3.244657      3.354871      2.368179
  H       4.511290      2.095455      2.215126
  H       4.207542      3.221766      0.848882
  H      -0.318256      1.783503     -1.635370
  H       0.761365      0.513278     -1.036624
  H      -1.540488      1.796752      0.566654
  H      -0.415185      0.612558      1.202416
  H      -3.603377      0.663600      0.439292
  H      -2.626471      2.255634     -1.249492
  H      -4.239636      1.687315     -1.711529
  H      -2.794011      1.000192     -2.503568
  H      -4.199648     -1.658629     -0.175940
  H      -5.016011     -0.520508     -1.258858
  H      -3.581382     -1.405699     -1.831863
  H      -2.173976     -2.171728     -0.110269
  H      -3.052972     -1.147289      2.005726
  H      -1.908881     -2.471142      2.318898
  H      -1.385101     -0.786274      2.518420
  H       0.172018     -1.939922     -0.786018
  H       0.598199     -1.259300      0.808470
  H       0.001197     -2.928119      0.688827
42
Coordinates from ORCA-job opt E -1378.792147471371
  C       3.740656     -1.542570     -1.003447
  C       3.945190     -0.593048      0.153425
  O       3.273620      0.644958     -0.133511
  P       2.534366      1.490630      1.033983
  C       3.745280      2.654929      1.666036
  O       1.897283      0.620687      2.075005
  S       1.228822      2.681660     -0.085789
  C       0.126879      1.369787     -0.730777
  C      -0.933868      0.928942      0.277885
  N      -1.764525     -0.146074     -0.245785
  C      -3.156487      0.256063     -0.491245
  C      -3.211378      1.367175     -1.542342
  C      -4.033719     -0.906497     -0.953178
  C      -1.553032     -1.436220      0.424570
  C      -1.994856     -1.458910      1.894065
  C      -0.105856     -1.903670      0.268568
  H       4.124981     -1.108743     -1.938407
  H       4.276449     -2.484209     -0.813981
  H       2.672681     -1.770583     -1.135803
  H       3.544571     -1.013620      1.088698
  H       5.014119     -0.373652      0.307094
  H       3.254062      3.353194      2.357670
  H       4.508321      2.081187      2.212475
  H       4.217177      3.203585      0.840096
  H      -0.327161      1.798267     -1.635572
  H       0.751578      0.522043     -1.046791
  H      -1.546339      1.801137      0.565090
  H      -0.417883      0.618940      1.198852
  H      -3.605718      0.661951      0.444337
  H      -2.638403      2.257973     -1.247104
  H      -4.251885      1.686507     -1.704308
  H      -2.806721      1.002462     -2.500699
  H      -4.196780     -1.661709     -0.171489
  H      -5.021709     -0.523910     -1.248342
  H      -3.587597     -1.403793     -1.830103
  H      -2.168043     -2.169245     -0.116556
  H      -3.046800     -1.151832      2.003412
  H      -1.898511     -2.473268      2.311111
  H      -1.379186     -0.787437      2.514176
  H       0.177538     -1.925606     -0.795103
  H       0.601725     -1.248502      0.801405
  H       0.011158     -2.918980      0.676933
42
Coordinates from ORCA-job opt E -1378.792151809686
  C       3.739828     -1.538622     -1.012493
  C       3.946496     -0.594578      0.148536
  O       3.280698      0.647664     -0.134029
  P       2.536727      1.487841      1.034407
  C       3.744658      2.652166      1.671910
  O       1.899792      0.612976      2.071312
  S       1.230053      2.680185     -0.082938
  C       0.127738      1.369666     -0.729679
  C      -0.935359      0.930846      0.277553
  N      -1.764768     -0.145735     -0.245005
  C      -3.156758      0.254942     -0.492905
  C      -3.211132      1.363538     -1.546682
  C      -4.032922     -0.909055     -0.953231
  C      -1.553131     -1.434396      0.428140
  C      -1.996910     -1.454703      1.897072
  C      -0.105240     -1.900706      0.275286
  H       4.126731     -1.102223     -1.945188
  H       4.272241     -2.482777     -0.826013
  H       2.671267     -1.762383     -1.146894
  H       3.542973     -1.017436      1.081496
  H       5.016095     -0.380289      0.304565
  H       3.251134      3.349185      2.363144
  H       4.505724      2.077320      2.219939
  H       4.218750      3.202195      0.848160
  H      -0.324676      1.798469     -1.635166
  H       0.751763      0.521145     -1.044749
  H      -1.548461      1.803664      0.561291
  H      -0.421117      0.623033      1.200326
  H      -3.607477      0.662484      0.441273
  H      -2.638804      2.255263     -1.252964
  H      -4.251556      1.682082     -1.710664
  H      -2.805062      0.996309     -2.503459
  H      -4.195373     -1.663461     -0.170665
  H      -5.021207     -0.527326     -1.248570
  H      -3.586674     -1.407167     -1.829639
  H      -2.166693     -2.169089     -0.112404
  H      -3.049072     -1.147659      2.004476
  H      -1.900730     -2.468227      2.316118
  H      -1.382314     -0.781746      2.516637
  H       0.180023     -1.924955     -0.787819
  H       0.600709     -1.243486      0.807828
  H       0.012037     -2.914957      0.686243
42
Coordinates from ORCA-job opt E -1378.792153641077
  C       3.746180     -1.541057     -1.008421
  C       3.945863     -0.595270      0.152436
  O       3.275726      0.644027     -0.133497
  P       2.534991      1.487534      1.034771
  C       3.745744      2.650501      1.669421
  O       1.897791      0.615632      2.074008
  S       1.229701      2.680328     -0.083811
  C       0.126457      1.370820     -0.730978
  C      -0.936547      0.932071      0.276441
  N      -1.766092     -0.144603     -0.245842
  C      -3.158616      0.255538     -0.491798
  C      -3.214794      1.364552     -1.545045
  C      -4.034832     -0.908633     -0.951551
  C      -1.552926     -1.433727      0.425975
  C      -1.994376     -1.455578      1.895569
  C      -0.105048     -1.899294      0.270515
  H       4.134415     -1.104076     -1.940286
  H       4.281351     -2.483142     -0.819378
  H       2.678871     -1.768635     -1.145826
  H       3.541144     -1.019000      1.084474
  H       5.014213     -0.376875      0.311480
  H       3.254167      3.349988      2.359552
  H       4.505446      2.074766      2.218421
  H       4.220618      3.197730      0.844268
  H      -0.326116      1.800473     -1.636015
  H       0.750065      0.522360     -1.046887
  H      -1.549499      1.804936      0.560204
  H      -0.421986      0.624271      1.199109
  H      -3.608455      0.662441      0.443097
  H      -2.642308      2.256325     -1.251702
  H      -4.255554      1.682844     -1.707422
  H      -2.810020      0.997768     -2.502524
  H      -4.195799     -1.663665     -0.169275
  H      -5.023752     -0.527053     -1.244989
  H      -3.589730     -1.406023     -1.828959
  H      -2.166955     -2.168227     -0.114304
  H      -3.046416     -1.148807      2.005006
  H      -1.897282     -2.469472      2.313492
  H      -1.378879     -0.783050      2.514705
  H       0.178667     -1.922932     -0.793015
  H       0.601340     -1.242038      0.802427
  H       0.013231     -2.913747      0.680710
42
Coordinates from ORCA-job opt E -1378.792151236953
  C       3.745821     -1.541483     -1.007641
  C       3.944400     -0.595772      0.153522
  O       3.274705      0.643623     -0.133283
  P       2.534439      1.488058      1.034719
  C       3.745806      2.650625      1.668920
  O       1.896912      0.617022      2.074514
  S       1.229555      2.680749     -0.084474
  C       0.126375      1.371200     -0.731549
  C      -0.936281      0.932211      0.276132
  N      -1.765775     -0.144511     -0.246083
  C      -3.158439      0.255525     -0.491491
  C      -3.215015      1.364763     -1.544493
  C      -4.034693     -0.908642     -0.951153
  C      -1.552297     -1.433716      0.425495
  C      -1.993451     -1.456007      1.895145
  C      -0.104369     -1.899124      0.269619
  H       4.135289     -1.104595     -1.939033
  H       4.280388     -2.483788     -0.817983
  H       2.678556     -1.768628     -1.146271
  H       3.538480     -1.019510      1.085032
  H       5.012601     -0.377553      0.313773
  H       3.254628      3.351045      2.358390
  H       4.504721      2.074562      2.218658
  H       4.221243      3.196848      0.843423
  H      -0.326485      1.800912     -1.636427
  H       0.750090      0.522998     -1.047905
  H      -1.549171      1.805014      0.560172
  H      -0.421288      0.624345      1.198543
  H      -3.608057      0.662212      0.443602
  H      -2.642760      2.256613     -1.250942
  H      -4.255898      1.682826     -1.706599
  H      -2.810394      0.998329     -2.502173
  H      -4.195287     -1.663887     -0.168994
  H      -5.023803     -0.527023     -1.243920
  H      -3.589956     -1.405850     -1.828845
  H      -2.166280     -2.168176     -0.114890
  H      -3.045458     -1.149244      2.004937
  H      -1.896255     -2.470039      2.312704
  H      -1.377769     -0.783672      2.514318
  H       0.179155     -1.922552     -0.793970
  H       0.602033     -1.241976      0.801617
  H       0.013983     -2.913729      0.679440
