21
Butylsarin P5R q=0
C     -3.14500973     0.47753234     0.23507134
C     -2.43536087     0.09903968    -1.05564063
C     -0.95597074     0.47959377    -1.07015850
C     -0.12097691    -0.27439395    -0.04272886
O      1.24026127     0.09376428    -0.21314643
P      2.31926767    -0.71507168     0.68031263
C      3.85339789     0.10098023     0.30658747
O      1.96933102    -0.74397148     2.13904806
F      2.23987408    -2.16210155     0.07409628
H     -2.76085588    -0.09252027     1.08602589
H     -4.21576243     0.26556395     0.15087623
H     -3.02685692     1.54418301     0.45037749
H     -2.54526052    -0.97761386    -1.22991766
H     -2.93370741     0.60745135    -1.88961494
H     -0.84145285     1.55953171    -0.91330112
H     -0.54798930     0.28432506    -2.07015048
H     -0.42715513    -0.01735386     0.97560229
H     -0.22336887    -1.35556716    -0.18352851
H      4.68444102    -0.40193038     0.80835958
H      4.04444053     0.08599935    -0.76993371
H      3.82871410     1.14255947     0.63832891
