21
Butylsarin P5S q=0
C     -1.72331452     1.47504302     0.45369939
C     -2.04051679     0.04092834     0.05968653
C     -1.43094886    -0.37089123    -1.28389253
C      0.09382030    -0.36092947    -1.31158233
O      0.59438376    -1.23909555    -0.31730792
P      2.17572516    -1.16340971     0.01192345
C      2.30195153     0.16369876     1.19160495
O      3.02494378    -0.97971114    -1.21162447
F      2.44988829    -2.56549466     0.66385753
H     -0.65593301     1.61016129     0.65041392
H     -2.02245028     2.17437624    -0.33333595
H     -2.26427031     1.74170390     1.36734984
H     -1.70502711    -0.63709692     0.85275347
H     -3.12957911    -0.06950200    -0.00679610
H     -1.81193266     0.28148100    -2.07814950
H     -1.77799240    -1.38765728    -1.50639933
H      0.48212228     0.64964038    -1.15232874
H      0.44329212    -0.70745514    -2.28988635
H      1.64163359    -0.01792782     2.04401461
H      3.32711150     0.24212331     1.56350543
H      2.02709275     1.12001469     0.73905946
