27
Coordinates from ORCA-job opt E -867.508209275972
  C           0.44585087618188     -1.63187019071215      1.12097803962156
  C           0.05717770129998     -0.68249063247054      0.00268052329744
  O           1.06681105969533      0.36189273095928     -0.02001358399533
  P           1.98087631461477      0.68336164774741     -1.28618561426495
  C           3.63174340221081      0.84755058423470     -0.64588811363173
  O           1.76689311295959     -0.16916378627658     -2.47917208173403
  F           1.58791684569934      2.21037348716568     -1.58320101652688
  C          -1.34146454269078     -0.03261425577224      0.09988941279245
  C          -1.49473426345414      0.76730717945948      1.39893068276732
  C          -2.40119109186034     -1.14156242403057      0.03353798150971
  C          -1.53410667626205      0.90454653340747     -1.10165361002609
  H           0.46482348598841     -1.11791517767515      2.09293473343100
  H           1.44897284319988     -2.03806051386775      0.92704896424934
  H          -0.25480121347930     -2.47554560080502      1.18309953660946
  H           0.11307819461884     -1.21343145520891     -0.96212865216739
  H           4.28753422348903      1.24853484713457     -1.43016760560806
  H           3.62802993385238      1.51846215579894      0.22312074215858
  H           3.98536816786736     -0.14763272493005     -0.34396149842105
  H          -2.46461286622679      1.28877069417647      1.41118252485040
  H          -1.45650044073602      0.11946805490153      2.28807405754256
  H          -0.70204085539123      1.52532373692106      1.49272144519640
  H          -2.36419479491412     -1.80342096745322      0.91184647019184
  H          -2.27408609910435     -1.76131614230984     -0.86898950586959
  H          -3.40773527155639     -0.69711414076225     -0.00367339008137
  H          -1.35955801090919      0.37480345854091     -2.05238074428923
  H          -0.84828227713803      1.76277875873961     -1.06067765344310
  H          -2.56176773795486      1.29896413308717     -1.11723409415927
