27
Coordinates from ORCA-job opt E -867.497804819417
  C       0.675543     -1.217793      1.226132
  C       0.196781     -0.372458      0.046305
  O       0.953147      0.837514      0.070838
  P       1.978861      1.149270     -1.139743
  C       3.404132      0.145928     -0.779635
  O       1.392108      0.907085     -2.499409
  F       2.271173      2.679689     -0.940075
  C      -1.327195     -0.036374      0.063649
  C      -1.722438      0.776169      1.311779
  C      -2.170508     -1.324091      0.020138
  C      -1.679882      0.807623     -1.179685
  H       0.537599     -0.696411      2.178524
  H       1.750761     -1.409129      1.142482
  H       0.169616     -2.185388      1.271928
  H       0.424801     -0.927072     -0.872756
  H       4.210851      0.371426     -1.482404
  H       3.767429      0.343535      0.232481
  H       3.166203     -0.917735     -0.862788
  H      -2.782159      1.055277      1.278410
  H      -1.570582      0.203455      2.232315
  H      -1.142317      1.701905      1.390177
  H      -2.054880     -1.917503      0.932779
  H      -1.886873     -1.952668     -0.831258
  H      -3.237720     -1.093860     -0.078911
  H      -1.417832      0.277787     -2.102173
  H      -1.153189      1.768030     -1.179255
  H      -2.753431      1.025787     -1.219126
27
Coordinates from ORCA-job opt E -867.503747653393
  C       0.617811     -1.272977      1.213114
  C       0.154333     -0.418156      0.039265
  O       0.939896      0.787661      0.038274
  P       1.965849      1.092425     -1.169061
  C       3.474373      0.240719     -0.763682
  O       1.435827      0.823218     -2.538161
  F       2.190812      2.635505     -0.948063
  C      -1.342558     -0.035839      0.066432
  C      -1.677449      0.787615      1.318681
  C      -2.198049     -1.310151      0.040657
  C      -1.670546      0.802164     -1.180982
  H       0.493501     -0.743323      2.169133
  H       1.688748     -1.502827      1.113979
  H       0.074879     -2.226175      1.260442
  H       0.344148     -0.977466     -0.893355
  H       4.270737      0.521282     -1.467773
  H       3.800326      0.487491      0.256798
  H       3.308365     -0.841960     -0.835658
  H      -2.732242      1.101461      1.300790
  H      -1.523559      0.209547      2.243278
  H      -1.059365      1.696590      1.377658
  H      -2.079401     -1.904439      0.959559
  H      -1.934345     -1.950916     -0.816861
  H      -3.264554     -1.055007     -0.047842
  H      -1.431682      0.251851     -2.104445
  H      -1.104485      1.745292     -1.194345
  H      -2.741369      1.056414     -1.207114
27
Coordinates from ORCA-job opt E -867.506359937802
  C       0.607914     -1.331568      1.166820
  C       0.114113     -0.464875      0.020960
  O       0.939436      0.726310     -0.012959
  P       1.977242      1.001353     -1.206286
  C       3.553410      0.344062     -0.712337
  O       1.525824      0.663628     -2.577147
  F       2.127654      2.564061     -0.993773
  C      -1.369277     -0.031398      0.075922
  C      -1.652486      0.801524      1.331245
  C      -2.251016     -1.285873      0.063782
  C      -1.689403      0.804647     -1.169468
  H       0.526276     -0.805463      2.130083
  H       1.666811     -1.591164      1.012731
  H       0.039128     -2.269578      1.225747
  H       0.257671     -1.012479     -0.929293
  H       4.334450      0.666459     -1.416539
  H       3.812535      0.670317      0.305185
  H       3.473531     -0.752837     -0.739859
  H      -2.697850      1.151372      1.323230
  H      -1.505072      0.220548      2.255796
  H      -0.998632      1.687117      1.374168
  H      -2.142084     -1.880337      0.984363
  H      -2.010555     -1.936812     -0.794855
  H      -3.311036     -0.997117     -0.021002
  H      -1.476209      0.242754     -2.093988
  H      -1.096564      1.731833     -1.196523
  H      -2.755810      1.083515     -1.175283
27
Coordinates from ORCA-job opt E -867.506810967236
  C       0.590564     -1.373429      1.139278
  C       0.093518     -0.499228      0.002436
  O       0.942267      0.677129     -0.050588
  P       1.984976      0.924297     -1.240064
  C       3.595823      0.431190     -0.669141
  O       1.586817      0.456637     -2.586282
  F       2.040049      2.510528     -1.134452
  C      -1.377327     -0.030069      0.079961
  C      -1.626028      0.790552      1.350902
  C      -2.288084     -1.265186      0.061777
  C      -1.686433      0.832681     -1.151116
  H       0.533637     -0.846361      2.103034
  H       1.638998     -1.654760      0.962944
  H       0.002794     -2.299001      1.207242
  H       0.209385     -1.043725     -0.951833
  H       4.360566      0.757386     -1.386970
  H       3.802274      0.854097      0.322584
  H       3.598179     -0.667223     -0.612355
  H      -2.662069      1.164533      1.360587
  H      -1.481018      0.192711      2.264079
  H      -0.951371      1.659101      1.397773
  H      -2.181641     -1.874460      0.972058
  H      -2.073229     -1.908163     -0.807836
  H      -3.341419     -0.951006     -0.005624
  H      -1.491587      0.281008     -2.084816
  H      -1.074046      1.746847     -1.167538
  H      -2.745595      1.133915     -1.145324
27
Coordinates from ORCA-job opt E -867.507276413969
  C       0.558095     -1.443452      1.117450
  C       0.074904     -0.547808     -0.007975
  O       0.958819      0.602704     -0.067934
  P       1.990304      0.836113     -1.263865
  C       3.633917      0.552083     -0.640878
  O       1.648045      0.209253     -2.559006
  F       1.917087      2.432783     -1.307063
  C      -1.377611     -0.028089      0.088094
  C      -1.595043      0.781796      1.372672
  C      -2.330471     -1.232200      0.057150
  C      -1.659469      0.862799     -1.131082
  H       0.529988     -0.921659      2.084362
  H       1.592769     -1.757990      0.922215
  H      -0.059946     -2.348874      1.187283
  H       0.163786     -1.083042     -0.968052
  H       4.367186      0.883478     -1.386912
  H       3.779238      1.086309      0.305552
  H       3.746099     -0.529110     -0.478454
  H      -2.616114      1.192540      1.392087
  H      -1.469198      0.164353      2.274530
  H      -0.890137      1.624403      1.431540
  H      -2.235273     -1.859264      0.955746
  H      -2.144049     -1.865803     -0.824343
  H      -3.373213     -0.883650      0.005944
  H      -1.473265      0.321281     -2.071950
  H      -1.026098      1.762060     -1.128593
  H      -2.710353      1.188985     -1.127802
27
Coordinates from ORCA-job opt E -867.507605133724
  C       0.514520     -1.534206      1.080171
  C       0.052255     -0.608700     -0.028822
  O       0.985573      0.501606     -0.086929
  P       2.011066      0.722937     -1.284988
  C       3.656233      0.712408     -0.601487
  O       1.774026     -0.092878     -2.497029
  F       1.772452      2.292464     -1.533345
  C      -1.374139     -0.025626      0.095886
  C      -1.542703      0.771341      1.395889
  C      -2.381353     -1.185000      0.057559
  C      -1.629925      0.896810     -1.106632
  H       0.521854     -1.022376      2.052656
  H       1.532503     -1.887453      0.863663
  H      -0.139730     -2.413825      1.150100
  H       0.108947     -1.132719     -0.995906
  H       4.360967      1.050186     -1.371833
  H       3.698353      1.367030      0.277257
  H       3.903119     -0.317519     -0.310405
  H      -2.540281      1.234911      1.431089
  H      -1.443906      0.130108      2.284375
  H      -0.794151      1.574529      1.466996
  H      -2.296670     -1.833742      0.941735
  H      -2.237806     -1.806988     -0.839834
  H      -3.408947     -0.791765      0.034043
  H      -1.462766      0.366055     -2.057248
  H      -0.969702      1.775956     -1.087941
  H      -2.669789      1.256455     -1.098302
27
Coordinates from ORCA-job opt E -867.507871128720
  C       0.474695     -1.608509      1.068643
  C       0.041198     -0.658074     -0.031381
  O       1.014155      0.417517     -0.078374
  P       2.017342      0.653533     -1.290554
  C       3.646387      0.833298     -0.594215
  O       1.857850     -0.264978     -2.442326
  F       1.656892      2.176945     -1.666775
  C      -1.362481     -0.026370      0.102302
  C      -1.500368      0.765560      1.408524
  C      -2.412392     -1.146547      0.054199
  C      -1.584191      0.913786     -1.093065
  H       0.504034     -1.105168      2.045279
  H       1.480024     -1.993274      0.845515
  H      -0.208654     -2.466000      1.134840
  H       0.081833     -1.175113     -1.003165
  H       4.323446      1.191872     -1.380359
  H       3.614400      1.543584      0.241471
  H       3.989538     -0.146724     -0.237177
  H      -2.476210      1.273506      1.445293
  H      -1.434195      0.111574      2.291011
  H      -0.716621      1.533516      1.491475
  H      -2.345901     -1.810148      0.929131
  H      -2.297001     -1.760994     -0.852760
  H      -3.425279     -0.716233      0.042932
  H      -1.432004      0.384315     -2.047516
  H      -0.895210      1.770161     -1.065524
  H      -2.611285      1.308963     -1.086707
27
Coordinates from ORCA-job opt E -867.508070990530
  C       0.443101     -1.659314      1.062931
  C       0.038607     -0.689286     -0.031732
  O       1.046102      0.354804     -0.060432
  P       2.020038      0.621581     -1.291133
  C       3.630263      0.905302     -0.590348
  O       1.906616     -0.332976     -2.420885
  F       1.584185      2.108306     -1.724874
  C      -1.350523     -0.026737      0.103583
  C      -1.466256      0.767888      1.409600
  C      -2.425229     -1.122020      0.057058
  C      -1.556375      0.917294     -1.091075
  H       0.486313     -1.162407      2.042862
  H       1.439092     -2.068987      0.840784
  H      -0.262726     -2.498774      1.124501
  H       0.072518     -1.204610     -1.005732
  H       4.291279      1.287756     -1.379788
  H       3.554534      1.634306      0.227223
  H       4.027880     -0.043710     -0.207183
  H      -2.428917      1.301203      1.446643
  H      -1.417136      0.112571      2.292832
  H      -0.662916      1.515683      1.492816
  H      -2.368034     -1.792241      0.928144
  H      -2.330874     -1.734488     -0.854383
  H      -3.428139     -0.668187      0.054869
  H      -1.418781      0.383608     -2.046045
  H      -0.849573      1.758713     -1.067376
  H      -2.575048      1.334723     -1.082145
27
Coordinates from ORCA-job opt E -867.508149106677
  C       0.449346     -1.644294      1.073306
  C       0.045232     -0.678430     -0.025856
  O       1.050977      0.368175     -0.048949
  P       2.010555      0.651416     -1.289994
  C       3.632581      0.871387     -0.596844
  O       1.859567     -0.258774     -2.451303
  F       1.604906      2.155892     -1.673270
  C      -1.350644     -0.028011      0.100491
  C      -1.474918      0.772718      1.401822
  C      -2.414828     -1.133139      0.057060
  C      -1.564927      0.908060     -1.097995
  H       0.484233     -1.144281      2.052320
  H       1.449918     -2.047566      0.859480
  H      -0.250058     -2.489033      1.133904
  H       0.087214     -1.199209     -0.997414
  H       4.301952      1.257831     -1.377637
  H       3.586813      1.579183      0.241639
  H       4.002125     -0.100612     -0.243482
  H      -2.444257      1.294606      1.434811
  H      -1.418031      0.124613      2.290107
  H      -0.680604      1.530871      1.479175
  H      -2.358369     -1.796832      0.933165
  H      -2.311319     -1.751921     -0.849504
  H      -3.420992     -0.686228      0.044828
  H      -1.423149      0.371575     -2.050878
  H      -0.865708      1.755982     -1.079303
  H      -2.587615      1.316021     -1.088960
27
Coordinates from ORCA-job opt E -867.508185266749
  C       0.448758     -1.643214      1.093122
  C       0.050194     -0.682423     -0.012435
  O       1.057390      0.363387     -0.034743
  P       1.994624      0.665306     -1.289200
  C       3.627534      0.863901     -0.616263
  O       1.816899     -0.214758     -2.468466
  F       1.591607      2.178299     -1.631239
  C      -1.345987     -0.030965      0.100399
  C      -1.480394      0.771831      1.399648
  C      -2.410276     -1.135573      0.048029
  C      -1.547485      0.904671     -1.100361
  H       0.476089     -1.138828      2.070187
  H       1.451401     -2.045417      0.887414
  H      -0.249039     -2.489268      1.153123
  H       0.097693     -1.206934     -0.981567
  H       4.292788      1.256728     -1.397217
  H       3.599469      1.557775      0.234260
  H       3.989370     -0.118240     -0.283073
  H      -2.450435      1.292969      1.423733
  H      -1.429703      0.126287      2.290010
  H      -0.687037      1.530557      1.480389
  H      -2.368102     -1.795692      0.927420
  H      -2.295834     -1.758481     -0.854300
  H      -3.414971     -0.686009      0.019007
  H      -1.399156      0.367887     -2.051882
  H      -0.846204      1.751311     -1.076690
  H      -2.569194      1.314893     -1.098585
27
Coordinates from ORCA-job opt E -867.508199636096
  C       0.448315     -1.637769      1.101926
  C       0.053312     -0.680148     -0.007093
  O       1.059991      0.366642     -0.028235
  P       1.989071      0.676753     -1.286697
  C       3.630375      0.852320     -0.626412
  O       1.791939     -0.184634     -2.475836
  F       1.595994      2.198459     -1.601538
  C      -1.344665     -0.031066      0.099666
  C      -1.486691      0.772683      1.397764
  C      -2.404584     -1.139968      0.045621
  C      -1.545589      0.902284     -1.103391
  H       0.470249     -1.131569      2.078014
  H       1.451902     -2.039386      0.900817
  H      -0.249317     -2.484252      1.160235
  H       0.104791     -1.205351     -0.975367
  H       4.294506      1.246222     -1.407382
  H       3.615853      1.535331      0.232883
  H       3.983027     -0.137925     -0.307669
  H      -2.458647      1.290079      1.418290
  H      -1.436245      0.128350      2.288829
  H      -0.696306      1.534240      1.479898
  H      -2.363616     -1.797523      0.926963
  H      -2.283673     -1.764664     -0.854353
  H      -3.410781     -0.694383      0.011128
  H      -1.388639      0.366019     -2.053625
  H      -0.850665      1.753767     -1.076576
  H      -2.569911      1.305489     -1.107142
27
Coordinates from ORCA-job opt E -867.508203765562
  C       0.444541     -1.637268      1.113729
  C       0.055854     -0.683724     -0.000626
  O       1.066217      0.360001     -0.022152
  P       1.983745      0.678492     -1.286555
  C       3.631133      0.853715     -0.639545
  O       1.776692     -0.178478     -2.476797
  F       1.585760      2.202400     -1.590648
  C      -1.341742     -0.031802      0.099901
  C      -1.490223      0.769442      1.398902
  C      -2.402897     -1.139673      0.038409
  C      -1.536046      0.904500     -1.102265
  H       0.462664     -1.127583      2.087903
  H       1.447864     -2.041668      0.917855
  H      -0.255426     -2.481820      1.171941
  H       0.109643     -1.211277     -0.967249
  H       4.289858      1.250106     -1.423508
  H       3.621251      1.532164      0.223292
  H       3.986128     -0.137745     -0.327272
  H      -2.461143      1.288627      1.415404
  H      -1.445917      0.122736      2.288458
  H      -0.698635      1.529045      1.487325
  H      -2.366992     -1.798144      0.919214
  H      -2.277233     -1.763207     -0.861556
  H      -3.408630     -0.693611     -0.000702
  H      -1.368418      0.372251     -2.052755
  H      -0.846039      1.759387     -1.066291
  H      -2.562009      1.303131     -1.113696
27
Coordinates from ORCA-job opt E -867.508212049506
  C       0.446008     -1.633076      1.117704
  C       0.057046     -0.681989      0.001146
  O       1.066128      0.362963     -0.020562
  P       1.981722      0.683650     -1.285876
  C       3.632052      0.847424     -0.643239
  O       1.767836     -0.167981     -2.479043
  F       1.589510      2.210835     -1.582448
  C      -1.341753     -0.032289      0.099683
  C      -1.493517      0.768754      1.398346
  C      -2.401358     -1.141647      0.036213
  C      -1.536074      0.903822     -1.102484
  H       0.462697     -1.121579      2.090948
  H       1.450012     -2.036825      0.923638
  H      -0.253092     -2.478229      1.176843
  H       0.112638     -1.211044     -0.964640
  H       4.290320      1.244853     -1.427137
  H       3.627747      1.520893      0.223671
  H       3.983448     -0.147409     -0.337575
  H      -2.464742      1.287505      1.412916
  H      -1.450818      0.121876      2.287906
  H      -0.702469      1.528805      1.488784
  H      -2.364965     -1.800686      0.916599
  H      -2.273788     -1.764288     -0.864194
  H      -3.407868     -0.697361     -0.003158
  H      -1.364537      0.372600     -2.052887
  H      -0.848929      1.761012     -1.064290
  H      -2.563252      1.299411     -1.116147
27
Coordinates from ORCA-job opt E -867.508209858476
  C       0.445557     -1.633183      1.118670
  C       0.056860     -0.682607      0.001436
  O       1.066649      0.361641     -0.020647
  P       1.981841      0.682549     -1.286144
  C       3.631875      0.848779     -0.643871
  O       1.769597     -0.171335     -2.478350
  F       1.588003      2.209034     -1.585199
  C      -1.341595     -0.032378      0.099830
  C      -1.493462      0.768094      1.398740
  C      -2.401646     -1.141147      0.035138
  C      -1.535269      0.904332     -1.101900
  H       0.463849     -1.120621      2.091352
  H       1.448930     -2.038577      0.924415
  H      -0.254693     -2.477299      1.179322
  H       0.112271     -1.212520     -0.963944
  H       4.288781      1.248133     -1.428033
  H       3.626490      1.521721      0.223549
  H       3.985543     -0.145506     -0.339048
  H      -2.463727      1.288770      1.412364
  H      -1.453245      0.120595      2.288027
  H      -0.701136      1.526679      1.490888
  H      -2.364532     -1.801859      0.914299
  H      -2.274980     -1.762122     -0.866612
  H      -3.408104     -0.696547     -0.002340
  H      -1.362558      0.373871     -2.052563
  H      -0.848658      1.761974     -1.062393
  H      -2.562641      1.299530     -1.116269
27
Coordinates from ORCA-job opt E -867.508209275972
  C       0.445851     -1.631870      1.120978
  C       0.057178     -0.682491      0.002681
  O       1.066811      0.361893     -0.020014
  P       1.980876      0.683362     -1.286186
  C       3.631743      0.847551     -0.645888
  O       1.766893     -0.169164     -2.479172
  F       1.587917      2.210373     -1.583201
  C      -1.341465     -0.032614      0.099889
  C      -1.494734      0.767307      1.398931
  C      -2.401191     -1.141562      0.033538
  C      -1.534107      0.904547     -1.101654
  H       0.464823     -1.117915      2.092935
  H       1.448973     -2.038061      0.927049
  H      -0.254801     -2.475546      1.183100
  H       0.113078     -1.213431     -0.962129
  H       4.287534      1.248535     -1.430168
  H       3.628030      1.518462      0.223121
  H       3.985368     -0.147633     -0.343961
  H      -2.464613      1.288771      1.411183
  H      -1.456500      0.119468      2.288074
  H      -0.702041      1.525324      1.492721
  H      -2.364195     -1.803421      0.911846
  H      -2.274086     -1.761316     -0.868990
  H      -3.407735     -0.697114     -0.003673
  H      -1.359558      0.374803     -2.052381
  H      -0.848282      1.762779     -1.060678
  H      -2.561768      1.298964     -1.117234
