38
Coordinates from ORCA-job opt E -1980.499764460783
  C           2.71405882585902     -2.58466884545128      2.09967173338332
  C           3.03877201287770     -1.23772141392285      1.49040031737183
  O           1.95677736812264     -0.76859445884970      0.66824367454495
  C           1.89257842139902     -1.17935354558177     -0.59712752384898
  O           2.70817033610961     -1.90199318116975     -1.11465243104621
  C           0.68812356559163     -0.62105757021403     -1.31939493154657
  C          -0.33554735209851      0.08225785826268     -0.43760657379001
  S          -1.08921027052787     -1.06686905789571      0.77735339214839
  P          -2.96131962700899     -1.32245831340691     -0.08026116888044
  S          -4.10258529976490     -2.43396441063098      1.00846879977535
  O          -3.51564131979927      0.15137472592718     -0.42814467504480
  C          -3.92267129054096      1.05911264456597      0.59736930547287
  O          -2.60583448957986     -1.83270363753893     -1.55887302643999
  C          -3.63284617504032     -2.04559553478434     -2.53461089545626
  C           0.18764249227409      1.31945596645999      0.28936957428450
  O          -0.23544653327650      1.73377456089787      1.33924505404238
  O           1.13070513210352      1.91729142840460     -0.41940522615569
  C           1.71826762844209      3.10754044744449      0.13319743356557
  C           2.76756227446714      3.59745197199278     -0.83409022405031
  H           3.52786055898195     -2.89186510337282      2.77250765727487
  H           1.78279059241214     -2.53479881279786      2.68279357615646
  H           2.60225051806526     -3.35271378929018      1.32082517567312
  H           3.15820368274954     -0.46373636349054      2.25938800863454
  H           3.95233913024697     -1.27545560767986      0.88059590005354
  H           0.20656345432404     -1.44979791791569     -1.85704044102936
  H           1.06340309697753      0.07714131611720     -2.08271083782639
  H          -1.14845357590672      0.45418948217910     -1.08164824654510
  H          -4.38393248281882      1.91719270745233      0.09571853494013
  H          -4.65335554033228      0.58227171615435      1.26725971310964
  H          -3.04633165950950      1.39131259298179      1.17430744095191
  H          -4.43581255226033     -2.67019652395413     -2.11620496318368
  H          -3.16162548748798     -2.56431877511522     -3.37674177271704
  H          -4.04359472949629     -1.08332589962963     -2.87081632819109
  H           2.14694384815187      2.85626403934149      1.11543406356404
  H           0.92259703617232      3.85104368982411      0.29253907913456
  H           2.32094031639636      3.83717298231573     -1.80998223299389
  H           3.54998304782951      2.83865464992725     -0.98155615801841
  H           3.23767504589516      4.50768598244331     -0.43566066731771
