38
Coordinates from ORCA-job opt E -1980.480619349175
  C       2.291210     -0.375511      2.797727
  C       3.329371     -0.811369      1.781131
  O       2.758318     -0.819824      0.463761
  C       2.125577     -1.969413      0.100519
  O       2.031528     -2.975513      0.787551
  C       1.549101     -1.829751     -1.286066
  C       0.169212     -1.183945     -1.303626
  S      -1.119501     -2.304554     -0.651721
  P      -2.900470     -1.182334     -0.804137
  S      -4.517982     -2.129151     -1.348614
  O      -3.101568     -0.343445      0.569898
  C      -3.156413     -1.041930      1.797887
  O      -2.540362      0.042626     -1.817414
  C      -3.477039      1.088954     -1.994920
  C       0.171323      0.149102     -0.568930
  O      -0.275036      0.348943      0.551896
  O       0.777970      1.095504     -1.342868
  C       0.856861      2.389221     -0.732018
  C       1.553715      3.326129     -1.698766
  H       2.727063     -0.323822      3.799384
  H       1.889049      0.609070      2.537551
  H       1.445400     -1.070011      2.818900
  H       4.155159     -0.092570      1.766934
  H       3.756965     -1.787484      2.037092
  H       1.538078     -2.820113     -1.757604
  H       2.254563     -1.234665     -1.880996
  H      -0.116583     -0.990761     -2.344073
  H      -3.594968     -0.383718      2.552302
  H      -3.773305     -1.940251      1.716872
  H      -2.147233     -1.313257      2.117421
  H      -4.281613      0.763280     -2.658687
  H      -2.963868      1.934091     -2.461288
  H      -3.890926      1.420193     -1.039381
  H       1.431150      2.323963      0.198966
  H      -0.152442      2.759336     -0.519762
  H       1.002614      3.385056     -2.643186
  H       2.556562      2.956954     -1.937799
  H       1.638519      4.330970     -1.275776
38
Coordinates from ORCA-job opt E -1980.490279268689
  C       2.286763     -0.457324      2.786573
  C       3.321627     -0.867533      1.756131
  O       2.761073     -0.849599      0.435789
  C       2.132854     -1.962757      0.028945
  O       2.030025     -2.966558      0.689728
  C       1.502806     -1.756677     -1.329491
  C       0.130074     -1.093641     -1.254945
  S      -1.089689     -2.266202     -0.551276
  P      -2.902795     -1.231453     -0.762156
  S      -4.447666     -2.321514     -1.215413
  O      -3.125378     -0.315185      0.553462
  C      -3.181836     -0.916166      1.840996
  O      -2.540233     -0.095271     -1.860695
  C      -3.487230      0.922885     -2.170517
  C       0.201085      0.219283     -0.486124
  O      -0.120817      0.386595      0.661233
  O       0.743403      1.165601     -1.260414
  C       0.938428      2.440764     -0.633846
  C       1.551418      3.373484     -1.656624
  H       2.736776     -0.423626      3.788742
  H       1.878895      0.536227      2.549943
  H       1.444919     -1.165259      2.805154
  H       4.153795     -0.150997      1.739413
  H       3.737363     -1.861028      1.973452
  H       1.442243     -2.730109     -1.836158
  H       2.172385     -1.128432     -1.933705
  H      -0.207855     -0.871946     -2.275990
  H      -3.627993     -0.189565      2.530709
  H      -3.803934     -1.824742      1.832796
  H      -2.167171     -1.161106      2.188823
  H      -4.278588      0.522852     -2.821244
  H      -2.952727      1.716196     -2.707201
  H      -3.929701      1.348700     -1.259463
  H       1.606221      2.320821      0.232218
  H      -0.032666      2.825742     -0.288961
  H       0.891589      3.481558     -2.530608
  H       2.514676      2.980506     -2.015122
  H       1.717858      4.365479     -1.215994
38
Coordinates from ORCA-job opt E -1980.492262307346
  C       2.374891     -0.632409      2.891545
  C       3.355309     -0.997506      1.795452
  O       2.748425     -0.914226      0.497290
  C       2.081704     -1.970063      0.050037
  O       2.002255     -3.008653      0.645450
  C       1.485232     -1.709838     -1.318354
  C       0.101115     -1.050538     -1.253328
  S      -1.080752     -2.264567     -0.558812
  P      -2.877146     -1.225401     -0.764084
  S      -4.411540     -2.365372     -1.061254
  O      -3.020317     -0.227825      0.494762
  C      -3.052041     -0.722418      1.833584
  O      -2.494247     -0.188373     -1.933630
  C      -3.410148      0.838482     -2.332895
  C       0.137747      0.253855     -0.466341
  O      -0.236742      0.403888      0.659097
  O       0.637333      1.212154     -1.218376
  C       0.810417      2.502456     -0.611291
  C       1.372386      3.434895     -1.658566
  H       2.882882     -0.651490      3.868676
  H       1.965680      0.376131      2.727087
  H       1.532907     -1.342700      2.923328
  H       4.197357     -0.292013      1.757954
  H       3.755027     -2.013065      1.930330
  H       1.418484     -2.667848     -1.853618
  H       2.151300     -1.049013     -1.891706
  H      -0.220288     -0.822267     -2.277655
  H      -3.437573      0.086929      2.466921
  H      -3.719587     -1.597521      1.919964
  H      -2.033971     -0.991620      2.161659
  H      -4.223265      0.411645     -2.942273
  H      -2.835048      1.552758     -2.935975
  H      -3.829223      1.357555     -1.457094
  H       1.491078      2.397319      0.249089
  H      -0.166328      2.849641     -0.238103
  H       0.685917      3.521278     -2.516326
  H       2.343741      3.070172     -2.029966
  H       1.517030      4.435566     -1.224421
38
Coordinates from ORCA-job opt E -1980.494245740962
  C       2.311448     -0.734769      2.843759
  C       3.331205     -1.005392      1.757707
  O       2.743657     -0.892955      0.452126
  C       2.112435     -1.946492     -0.047692
  O       2.016571     -3.005154      0.519629
  C       1.468894     -1.625637     -1.380288
  C       0.088519     -0.969092     -1.210325
  S      -1.044351     -2.211631     -0.484386
  P      -2.896647     -1.284191     -0.726434
  S      -4.359080     -2.540800     -0.807810
  O      -3.037435     -0.157505      0.413073
  C      -3.029907     -0.488554      1.801265
  O      -2.608944     -0.370220     -2.012043
  C      -3.591999      0.551611     -2.503803
  C       0.185485      0.305169     -0.377241
  O      -0.060757      0.394845      0.795509
  O       0.669750      1.280254     -1.117839
  C       0.965082      2.530835     -0.472341
  C       1.474326      3.486363     -1.523004
  H       2.803203     -0.769662      3.827263
  H       1.856938      0.257944      2.713716
  H       1.508363     -1.488149      2.830918
  H       4.139437     -0.262382      1.762161
  H       3.770275     -2.008530      1.852716
  H       1.369728     -2.556849     -1.954363
  H       2.103128     -0.930270     -1.947897
  H      -0.290198     -0.702223     -2.203490
  H      -3.405439      0.389929      2.339035
  H      -3.686421     -1.349434      2.004804
  H      -2.001212     -0.711975      2.125757
  H      -4.400108      0.008729     -3.015536
  H      -3.071758      1.204207     -3.214271
  H      -4.005437      1.155388     -1.683412
  H       1.711115      2.344092      0.315982
  H       0.047151      2.897724      0.011935
  H       0.716304      3.652563     -2.302981
  H       2.387630      3.098716     -1.998595
  H       1.709047      4.453493     -1.055444
38
Coordinates from ORCA-job opt E -1980.495227870343
  C       2.306242     -0.824785      2.816866
  C       3.348922     -1.079712      1.748570
  O       2.786136     -0.927124      0.434645
  C       2.146543     -1.964965     -0.095955
  O       2.043291     -3.046329      0.435405
  C       1.493344     -1.595389     -1.408160
  C       0.119422     -0.938549     -1.186678
  S      -1.020079     -2.187895     -0.482054
  P      -2.894033     -1.292777     -0.715782
  S      -4.335162     -2.565863     -0.560897
  O      -2.977454     -0.050252      0.301184
  C      -2.958915     -0.235084      1.715390
  O      -2.713368     -0.514880     -2.105039
  C      -3.745225      0.335064     -2.623777
  C       0.257170      0.305461     -0.313135
  O       0.013245      0.365424      0.867031
  O       0.702482      1.315404     -1.042120
  C       0.980854      2.553265     -0.363797
  C       1.453810      3.550274     -1.391963
  H       2.773283     -0.893731      3.809853
  H       1.868410      0.176800      2.703750
  H       1.494692     -1.565466      2.763293
  H       4.162219     -0.344520      1.791059
  H       3.778489     -2.088077      1.830497
  H       1.378087     -2.502544     -2.015422
  H       2.124542     -0.881803     -1.955325
  H      -0.274259     -0.631760     -2.162764
  H      -3.275182      0.713546      2.163556
  H      -3.655674     -1.032191      2.014877
  H      -1.937123     -0.480366      2.041267
  H      -4.583794     -0.271188     -2.993258
  H      -3.295051      0.895943     -3.449938
  H      -4.096813      1.032097     -1.851182
  H       1.743033      2.358306      0.406338
  H       0.063895      2.885353      0.145621
  H       0.680807      3.724413     -2.154094
  H       2.367598      3.196761     -1.890465
  H       1.675613      4.507140     -0.899237
38
Coordinates from ORCA-job opt E -1980.495849761368
  C       2.297218     -0.878483      2.801815
  C       3.352320     -1.105132      1.738827
  O       2.808175     -0.900512      0.421137
  C       2.169954     -1.919572     -0.151170
  O       2.102187     -3.035694      0.314675
  C       1.514713     -1.502933     -1.446855
  C       0.120354     -0.892091     -1.201458
  S      -0.986978     -2.177542     -0.514353
  P      -2.887564     -1.325643     -0.696661
  S      -4.269673     -2.616519     -0.321885
  O      -2.925945     -0.001254      0.213172
  C      -2.961967     -0.069467      1.638315
  O      -2.834679     -0.664715     -2.153233
  C      -3.925099      0.114516     -2.662392
  C       0.231181      0.343436     -0.311640
  O      -0.003119      0.379963      0.873335
  O       0.732557      1.353895     -1.007947
  C       1.026842      2.565689     -0.288384
  C       1.583931      3.564992     -1.270597
  H       2.745612     -1.008684      3.797280
  H       1.885105      0.137026      2.731681
  H       1.469563     -1.593903      2.696526
  H       4.169543     -0.378086      1.820976
  H       3.775454     -2.118024      1.793634
  H       1.419377     -2.382352     -2.095999
  H       2.131314     -0.749082     -1.954733
  H      -0.288441     -0.579158     -2.171086
  H      -3.202050      0.937543      1.997185
  H      -3.737785     -0.773967      1.971414
  H      -1.976468     -0.377948      2.013694
  H      -4.786557     -0.535225     -2.868121
  H      -3.569131      0.573072     -3.590803
  H      -4.206195      0.896153     -1.944250
  H       1.745870      2.323551      0.509192
  H       0.101378      2.921333      0.188490
  H       0.853942      3.786168     -2.061932
  H       2.506336      3.186982     -1.733101
  H       1.818727      4.501668     -0.746582
38
Coordinates from ORCA-job opt E -1980.496388700371
  C       2.269221     -0.994489      2.793623
  C       3.351052     -1.198167      1.752976
  O       2.845821     -0.948216      0.426501
  C       2.213572     -1.941807     -0.191488
  O       2.121896     -3.067356      0.242356
  C       1.546622     -1.471177     -1.463341
  C       0.155519     -0.864942     -1.179553
  S      -0.928407     -2.156925     -0.474124
  P      -2.828416     -1.314496     -0.653560
  S      -4.180130     -2.603876     -0.181532
  O      -2.846984      0.052543      0.190322
  C      -2.981247      0.058062      1.613138
  O      -2.808849     -0.726441     -2.138966
  C      -3.912858      0.022762     -2.665208
  C       0.286065      0.365883     -0.286657
  O       0.057848      0.405325      0.897372
  O       0.729644      1.390539     -0.996196
  C       1.005129      2.612481     -0.284936
  C       1.504659      3.626060     -1.283187
  H       2.685287     -1.179464      3.794732
  H       1.881529      0.032088      2.756803
  H       1.428416     -1.684281      2.631304
  H       4.171902     -0.481257      1.879552
  H       3.763534     -2.216013      1.786830
  H       1.435088     -2.325643     -2.142527
  H       2.159112     -0.699476     -1.948577
  H      -0.276134     -0.547549     -2.139251
  H      -3.152520      1.099375      1.908016
  H      -3.838479     -0.559606      1.917517
  H      -2.053920     -0.316328      2.068590
  H      -4.788481     -0.631165     -2.779580
  H      -3.591659      0.397892     -3.642469
  H      -4.154840      0.863600     -2.001149
  H       1.751575      2.393123      0.493806
  H       0.081667      2.938750      0.216467
  H       0.747493      3.822777     -2.055388
  H       2.427253      3.276317     -1.767590
  H       1.723022      4.571097     -0.766463
38
Coordinates from ORCA-job opt E -1980.496719586766
  C       2.305583     -1.094874      2.812196
  C       3.365901     -1.253121      1.741129
  O       2.827724     -0.961609      0.437619
  C       2.189509     -1.937291     -0.198291
  O       2.114146     -3.073179      0.202487
  C       1.516302     -1.437042     -1.455902
  C       0.133403     -0.834048     -1.138688
  S      -0.928249     -2.133277     -0.417329
  P      -2.825780     -1.311108     -0.641679
  S      -4.168310     -2.584250     -0.100451
  O      -2.837069      0.100742      0.125475
  C      -2.930192      0.182837      1.550194
  O      -2.804941     -0.809582     -2.158439
  C      -3.906275     -0.084865     -2.723353
  C       0.282168      0.389965     -0.240000
  O       0.074657      0.425059      0.944730
  O       0.698686      1.419737     -0.954351
  C       0.981626      2.641853     -0.246778
  C       1.454787      3.659342     -1.254770
  H       2.743393     -1.319633      3.795965
  H       1.915051     -0.068186      2.824997
  H       1.459564     -1.778478      2.640420
  H       4.183711     -0.533065      1.874084
  H       3.786892     -2.267713      1.728023
  H       1.394814     -2.275776     -2.153554
  H       2.125620     -0.656111     -1.930756
  H      -0.319033     -0.510144     -2.086606
  H      -3.080667      1.240919      1.792922
  H      -3.784712     -0.408285      1.910469
  H      -1.992122     -0.177886      2.000867
  H      -4.796849     -0.728485     -2.767292
  H      -3.599162      0.202310     -3.734850
  H      -4.119714      0.812888     -2.126318
  H       1.745196      2.427413      0.516715
  H       0.065851      2.962728      0.272489
  H       0.681270      3.850362     -2.012838
  H       2.370272      3.315429     -1.757908
  H       1.676949      4.606426     -0.742465
38
Coordinates from ORCA-job opt E -1980.497036403684
  C       2.374104     -1.078535      2.816560
  C       3.405636     -1.252500      1.720930
  O       2.840982     -0.963847      0.428577
  C       2.194282     -1.941828     -0.197898
  O       2.144065     -3.081158      0.194386
  C       1.495387     -1.440056     -1.442203
  C       0.111884     -0.842613     -1.118220
  S      -0.948893     -2.138292     -0.387757
  P      -2.839890     -1.312417     -0.643352
  S      -4.201916     -2.587767     -0.148683
  O      -2.869691      0.100424      0.125780
  C      -2.994686      0.179905      1.548568
  O      -2.785542     -0.805764     -2.160194
  C      -3.870558     -0.066816     -2.735653
  C       0.256318      0.384663     -0.223404
  O       0.045392      0.426634      0.959767
  O       0.681350      1.410018     -0.942493
  C       0.960765      2.634840     -0.239896
  C       1.456495      3.642267     -1.248585
  H       2.829462     -1.311069      3.790331
  H       1.999163     -0.045687      2.838181
  H       1.513528     -1.747510      2.663171
  H       4.231507     -0.537561      1.831333
  H       3.818379     -2.270344      1.705523
  H       1.373310     -2.277660     -2.141311
  H       2.098671     -0.656772     -1.921360
  H      -0.344157     -0.524102     -2.065726
  H      -3.118857      1.241110      1.792725
  H      -3.874226     -0.387534      1.885827
  H      -2.080571     -0.207279      2.023232
  H      -4.778839     -0.687038     -2.761124
  H      -3.565653      0.190156     -3.756182
  H      -4.058307      0.850205     -2.159410
  H       1.712128      2.425224      0.536762
  H       0.038411      2.968041      0.259670
  H       0.697653      3.828722     -2.022799
  H       2.377795      3.288540     -1.734548
  H       1.675117      4.593401     -0.742367
38
Coordinates from ORCA-job opt E -1980.497370177728
  C       2.394018     -1.099690      2.766433
  C       3.422885     -1.233666      1.663044
  O       2.838852     -0.930288      0.384412
  C       2.205852     -1.909961     -0.256656
  O       2.188883     -3.060540      0.106692
  C       1.463392     -1.387243     -1.465474
  C       0.086428     -0.814988     -1.080402
  S      -0.943525     -2.130164     -0.338902
  P      -2.845170     -1.342150     -0.619804
  S      -4.191403     -2.591155     -0.017283
  O      -2.870726      0.127324      0.038485
  C      -3.039377      0.312949      1.447421
  O      -2.827111     -0.947882     -2.173236
  C      -3.925689     -0.244083     -2.764090
  C       0.247585      0.392757     -0.161180
  O       0.064278      0.409546      1.028300
  O       0.691394      1.424972     -0.864497
  C       1.002021      2.628207     -0.140014
  C       1.540223      3.635495     -1.127857
  H       2.854162     -1.349370      3.733315
  H       2.004100     -0.072880      2.813198
  H       1.541897     -1.775782      2.599220
  H       4.234565     -0.504270      1.782438
  H       3.854253     -2.243220      1.625231
  H       1.331267     -2.206556     -2.183749
  H       2.045038     -0.584876     -1.940101
  H      -0.403446     -0.479236     -2.004077
  H      -3.085384      1.394720      1.616099
  H      -3.972266     -0.161730      1.783722
  H      -2.177718     -0.107318      1.985824
  H      -4.855740     -0.819334     -2.642495
  H      -3.695345     -0.135808     -3.829722
  H      -4.037184      0.747764     -2.304218
  H       1.739532      2.386159      0.640263
  H       0.085130      2.985104      0.353173
  H       0.797770      3.853715     -1.909564
  H       2.455651      3.260520     -1.608760
  H       1.780908      4.572956     -0.607030
38
Coordinates from ORCA-job opt E -1980.497612992608
  C       2.445636     -1.122599      2.757355
  C       3.451552     -1.207639      1.628509
  O       2.828574     -0.906135      0.367914
  C       2.209197     -1.894086     -0.274853
  O       2.207028     -3.045176      0.088658
  C       1.437513     -1.373303     -1.466387
  C       0.062950     -0.811078     -1.059489
  S      -0.958366     -2.133593     -0.314864
  P      -2.858884     -1.351533     -0.615810
  S      -4.213458     -2.570332      0.029075
  O      -2.872962      0.140782     -0.009282
  C      -3.057422      0.375007      1.390622
  O      -2.844242     -1.010614     -2.183789
  C      -3.936428     -0.307288     -2.785949
  C       0.221329      0.391841     -0.132149
  O       0.014360      0.407468      1.053711
  O       0.684578      1.422802     -0.824526
  C       0.994387      2.621047     -0.093005
  C       1.571324      3.620266     -1.066995
  H       2.935458     -1.369598      3.710354
  H       2.021998     -0.110874      2.827511
  H       1.614627     -1.826151      2.600059
  H       4.242305     -0.454413      1.738759
  H       3.912657     -2.202867      1.565890
  H       1.299562     -2.191030     -2.185125
  H       2.005662     -0.565424     -1.947716
  H      -0.437455     -0.470921     -1.976101
  H      -3.039810      1.461921      1.528543
  H      -4.023551     -0.033451      1.720008
  H      -2.234566     -0.079074      1.960416
  H      -4.885409     -0.824051     -2.578698
  H      -3.751402     -0.298993     -3.865736
  H      -3.982956      0.723400     -2.407860
  H       1.708611      2.369468      0.705694
  H       0.070504      2.991944      0.376551
  H       0.852429      3.847317     -1.867868
  H       2.493209      3.232252     -1.524512
  H       1.811462      4.554711     -0.540755
38
Coordinates from ORCA-job opt E -1980.497885680367
  C       2.476520     -1.159756      2.745461
  C       3.464248     -1.197187      1.597590
  O       2.810384     -0.891163      0.353537
  C       2.198201     -1.880404     -0.292673
  O       2.229268     -3.038189      0.050161
  C       1.410017     -1.356873     -1.471185
  C       0.048802     -0.790995     -1.031022
  S      -0.961665     -2.116821     -0.272386
  P      -2.867801     -1.359307     -0.603090
  S      -4.224195     -2.550765      0.082184
  O      -2.882429      0.152702     -0.048948
  C      -3.089798      0.433651      1.339117
  O      -2.849614     -1.074205     -2.183408
  C      -3.939405     -0.387482     -2.809147
  C       0.230521      0.403490     -0.095602
  O       0.016922      0.416366      1.089489
  O       0.690002      1.436675     -0.783298
  C       1.014573      2.628728     -0.048963
  C       1.591638      3.628056     -1.021722
  H       2.991465     -1.399745      3.687137
  H       2.018833     -0.165082      2.835589
  H       1.670415     -1.893314      2.594898
  H       4.237766     -0.426256      1.705085
  H       3.948148     -2.179699      1.507737
  H       1.254000     -2.173368     -2.187425
  H       1.970726     -0.549756     -1.961954
  H      -0.469912     -0.440911     -1.934484
  H      -3.009814      1.520909      1.449245
  H      -4.086802      0.092228      1.652119
  H      -2.310907     -0.051991      1.944450
  H      -4.897923     -0.844407     -2.522343
  H      -3.795301     -0.487428     -3.890491
  H      -3.933401      0.674348     -2.527381
  H       1.731045      2.366003      0.744146
  H       0.097017      3.003658      0.430027
  H       0.868354      3.865500     -1.815248
  H       2.507161      3.235710     -1.487837
  H       1.842939      4.557082     -0.491206
38
Coordinates from ORCA-job opt E -1980.498031523537
  C       2.515767     -1.148103      2.729806
  C       3.477303     -1.139572      1.559827
  O       2.786873     -0.854445      0.329925
  C       2.192089     -1.859969     -0.305577
  O       2.259557     -3.015792      0.038346
  C       1.376021     -1.358112     -1.474315
  C       0.021993     -0.788883     -1.015305
  S      -0.985273     -2.114397     -0.250976
  P      -2.894163     -1.367873     -0.602506
  S      -4.258751     -2.541405      0.090584
  O      -2.912763      0.151250     -0.069272
  C      -3.131865      0.453177      1.312023
  O      -2.861332     -1.105015     -2.186719
  C      -3.944997     -0.425419     -2.832207
  C       0.212592      0.399915     -0.074743
  O      -0.022110      0.412296      1.106596
  O       0.701323      1.425582     -0.750053
  C       1.043146      2.607568     -0.006694
  C       1.649159      3.599889     -0.968200
  H       3.065539     -1.349959      3.660705
  H       2.004352     -0.180164      2.824224
  H       1.753223     -1.930832      2.603689
  H       4.222710     -0.339620      1.652391
  H       3.996733     -2.102266      1.454072
  H       1.207667     -2.185867     -2.174486
  H       1.922436     -0.555502     -1.988268
  H      -0.506274     -0.433170     -1.911082
  H      -3.010745      1.537524      1.413646
  H      -4.146549      0.154808      1.611181
  H      -2.384011     -0.056033      1.936699
  H      -4.910318     -0.835217     -2.500251
  H      -3.824999     -0.596009     -3.907853
  H      -3.901667      0.650594     -2.614696
  H       1.744914      2.323826      0.792406
  H       0.129127      2.997431      0.467172
  H       0.937239      3.858601     -1.765270
  H       2.560736      3.191740     -1.428454
  H       1.915319      4.519423     -0.428202
38
Coordinates from ORCA-job opt E -1980.498095481487
  C       2.546992     -1.149087      2.721852
  C       3.493197     -1.135629      1.540002
  O       2.788814     -0.846563      0.318505
  C       2.191478     -1.852040     -0.315431
  O       2.271173     -3.009257      0.019802
  C       1.359580     -1.349155     -1.472803
  C       0.009923     -0.778489     -1.000410
  S      -0.992972     -2.103413     -0.232870
  P      -2.905911     -1.371599     -0.598954
  S      -4.265737     -2.541899      0.106137
  O      -2.936132      0.154021     -0.085152
  C      -3.174284      0.475223      1.288057
  O      -2.868562     -1.128509     -2.185390
  C      -3.953446     -0.464497     -2.845745
  C       0.206171      0.409100     -0.059980
  O      -0.038402      0.424455      1.119399
  O       0.713002      1.428982     -0.731412
  C       1.063123      2.605741      0.017672
  C       1.678268      3.597219     -0.938895
  H       3.111087     -1.344492      3.645441
  H       2.030582     -0.184084      2.820824
  H       1.789035     -1.937907      2.607360
  H       4.238916     -0.335185      1.626732
  H       4.013651     -2.096683      1.425863
  H       1.181557     -2.177134     -2.170177
  H       1.900575     -0.547269     -1.993893
  H      -0.525911     -0.421891     -1.891378
  H      -3.043881      1.559404      1.379794
  H      -4.197396      0.191441      1.572110
  H      -2.443684     -0.034676      1.932250
  H      -4.918490     -0.857486     -2.492757
  H      -3.842213     -0.670831     -3.916130
  H      -3.901273      0.617565     -2.662610
  H       1.761421      2.312082      0.816261
  H       0.151938      3.000474      0.492689
  H       0.968579      3.867117     -1.734282
  H       2.586650      3.183515     -1.400548
  H       1.952580      4.511435     -0.393769
38
Coordinates from ORCA-job opt E -1980.498128804921
  C       2.555948     -1.163113      2.723555
  C       3.496472     -1.133867      1.537681
  O       2.784339     -0.841010      0.321796
  C       2.191677     -1.847992     -0.315461
  O       2.278474     -3.005815      0.014736
  C       1.354946     -1.346074     -1.469807
  C       0.006871     -0.773390     -0.995158
  S      -0.995306     -2.094689     -0.224126
  P      -2.910293     -1.369726     -0.596057
  S      -4.266568     -2.545893      0.105670
  O      -2.950832      0.155640     -0.081961
  C      -3.196425      0.478894      1.288969
  O      -2.867838     -1.126233     -2.181067
  C      -3.954532     -0.473319     -2.850191
  C       0.205057      0.417297     -0.059805
  O      -0.047783      0.439987      1.117685
  O       0.726014      1.430222     -0.732353
  C       1.077593      2.607249      0.016832
  C       1.689240      3.599619     -0.941182
  H       3.128148     -1.350773      3.643696
  H       2.026929     -0.205093      2.825889
  H       1.808494     -1.962376      2.612131
  H       4.236213     -0.328133      1.628178
  H       4.025482     -2.089088      1.415030
  H       1.173897     -2.175235     -2.164982
  H       1.895244     -0.546120     -1.994735
  H      -0.531206     -0.419515     -1.885923
  H      -3.080752      1.564955      1.378758
  H      -4.217423      0.184154      1.570132
  H      -2.462783     -0.020577      1.937813
  H      -4.917678     -0.879583     -2.507130
  H      -3.830616     -0.673732     -3.920261
  H      -3.916505      0.608455     -2.662019
  H       1.779217      2.312982      0.812327
  H       0.168052      3.001012      0.495447
  H       0.975985      3.872010     -1.732566
  H       2.595309      3.186112     -1.407531
  H       1.966939      4.512757     -0.395849
38
Coordinates from ORCA-job opt E -1980.498155206709
  C       2.564071     -1.190529      2.720842
  C       3.499739     -1.144532      1.531494
  O       2.780985     -0.841534      0.322485
  C       2.191485     -1.845171     -0.323918
  O       2.286243     -3.005971     -0.007314
  C       1.346824     -1.334860     -1.468814
  C       0.003110     -0.762500     -0.981725
  S      -0.994651     -2.082750     -0.205634
  P      -2.911048     -1.368422     -0.587637
  S      -4.260957     -2.542267      0.131258
  O      -2.957667      0.163923     -0.095189
  C      -3.209630      0.509236      1.268845
  O      -2.868665     -1.146945     -2.174678
  C      -3.956517     -0.509433     -2.856762
  C       0.208276      0.427832     -0.047484
  O      -0.046764      0.454505      1.129335
  O       0.737798      1.436532     -0.720771
  C       1.091248      2.613225      0.028630
  C       1.690246      3.610485     -0.932438
  H       3.142173     -1.377223      3.637482
  H       2.026920     -0.237714      2.830199
  H       1.823214     -1.995658      2.608351
  H       4.235657     -0.336040      1.629052
  H       4.034148     -2.095069      1.396595
  H       1.159670     -2.159676     -2.167470
  H       1.885428     -0.533443     -1.993265
  H      -0.541607     -0.407225     -1.868041
  H      -3.107370      1.598039      1.339610
  H      -4.228085      0.208436      1.553297
  H      -2.472390      0.029984      1.928529
  H      -4.917918     -0.921042     -2.515427
  H      -3.824299     -0.717740     -3.924213
  H      -3.928519      0.574173     -2.677632
  H       1.802220      2.319612      0.816045
  H       0.184818      3.002072      0.516751
  H       0.968049      3.883897     -1.715325
  H       2.592474      3.201122     -1.409712
  H       1.971293      4.522669     -0.387192
38
Coordinates from ORCA-job opt E -1980.498195862631
  C       2.565154     -1.245380      2.714756
  C       3.497127     -1.162578      1.524119
  O       2.770107     -0.842371      0.325371
  C       2.190846     -1.839253     -0.341208
  O       2.302201     -3.005429     -0.051170
  C       1.334678     -1.312919     -1.469954
  C      -0.000069     -0.741089     -0.959855
  S      -0.988330     -2.060154     -0.170602
  P      -2.908161     -1.367369     -0.569344
  S      -4.247577     -2.534940      0.181107
  O      -2.964526      0.176572     -0.116204
  C      -3.225626      0.559558      1.235519
  O      -2.867792     -1.185860     -2.160289
  C      -3.957553     -0.573314     -2.861656
  C       0.217997      0.448385     -0.027093
  O      -0.041099      0.482061      1.148656
  O       0.759438      1.450263     -0.701873
  C       1.115255      2.627830      0.045085
  C       1.692749      3.631534     -0.922523
  H       3.148972     -1.431994      3.627787
  H       2.009705     -0.304720      2.837368
  H       1.839771     -2.063178      2.593343
  H       4.222798     -0.347042      1.638683
  H       4.044238     -2.102436      1.366974
  H       1.136947     -2.129161     -2.175662
  H       1.870976     -0.508468     -1.992140
  H      -0.557310     -0.382958     -1.837350
  H      -3.153028      1.652493      1.270390
  H      -4.235866      0.242224      1.531457
  H      -2.476246      0.122298      1.910416
  H      -4.915648     -0.997040     -2.526240
  H      -3.809491     -0.790434     -3.925166
  H      -3.949115      0.512464     -2.694118
  H       1.841428      2.337445      0.819779
  H       0.213907      3.009034      0.548025
  H       0.956105      3.903834     -1.692205
  H       2.588712      3.228543     -1.416626
  H       1.978331      4.543553     -0.379398
38
Coordinates from ORCA-job opt E -1980.498229114462
  C       2.555361     -1.299341      2.707584
  C       3.488735     -1.178517      1.521075
  O       2.758265     -0.842967      0.329218
  C       2.191494     -1.832132     -0.359307
  O       2.321417     -3.003048     -0.097323
  C       1.324875     -1.290013     -1.472368
  C      -0.000878     -0.717928     -0.941096
  S      -0.978758     -2.035961     -0.135624
  P      -2.903412     -1.367893     -0.549628
  S      -4.232586     -2.532536      0.225126
  O      -2.972732      0.184460     -0.129315
  C      -3.241097      0.597057      1.211864
  O      -2.863915     -1.219417     -2.143673
  C      -3.956532     -0.630007     -2.859675
  C       0.227899      0.472236     -0.011164
  O      -0.038211      0.514781      1.162823
  O       0.781330      1.466175     -0.687634
  C       1.138588      2.646507      0.053617
  C       1.704093      3.650527     -0.920716
  H       3.139465     -1.488076      3.619989
  H       1.981136     -0.371705      2.842236
  H       1.846716     -2.129387      2.571423
  H       4.202749     -0.355680      1.654814
  H       4.049247     -2.106962      1.344263
  H       1.116681     -2.097893     -2.184587
  H       1.859387     -0.482782     -1.992147
  H      -0.570285     -0.358421     -1.810313
  H      -3.209278      1.692509      1.213254
  H      -4.236985      0.252039      1.524988
  H      -2.472034      0.208612      1.894388
  H      -4.909495     -1.075220     -2.537941
  H      -3.788054     -0.842968     -3.920945
  H      -3.975014      0.455657     -2.692123
  H       1.873299      2.360330      0.821896
  H       0.240460      3.025101      0.564000
  H       0.959408      3.919727     -1.683706
  H       2.596002      3.249066     -1.423287
  H       1.992656      4.564070     -0.381824
38
Coordinates from ORCA-job opt E -1980.498266868680
  C       2.533686     -1.341973      2.700866
  C       3.473309     -1.179524      1.524310
  O       2.743357     -0.836610      0.334320
  C       2.194791     -1.821453     -0.374507
  O       2.347916     -2.994894     -0.137068
  C       1.318929     -1.271132     -1.476298
  C      -0.000231     -0.698292     -0.931002
  S      -0.968686     -2.015213     -0.109120
  P      -2.899213     -1.370578     -0.532865
  S      -4.219789     -2.540098      0.249976
  O      -2.984366      0.184710     -0.127943
  C      -3.255567      0.609382      1.208755
  O      -2.858861     -1.237059     -2.128920
  C      -3.956292     -0.665035     -2.850941
  C       0.234144      0.494900     -0.005782
  O      -0.043429      0.548137      1.165280
  O       0.801004      1.479618     -0.683426
  C       1.160024      2.663582      0.050043
  C       1.732422      3.658788     -0.929181
  H       3.113299     -1.532084      3.615838
  H       1.936205     -0.430638      2.845233
  H       1.846984     -2.186822      2.544640
  H       4.169662     -0.345172      1.677662
  H       4.053004     -2.093314      1.333200
  H       1.103396     -2.074588     -2.191255
  H       1.851173     -0.462335     -1.996121
  H      -0.579191     -0.340316     -1.794658
  H      -3.272468      1.704989      1.188795
  H      -4.230573      0.226357      1.542574
  H      -2.460929      0.268340      1.887244
  H      -4.901216     -1.141742     -2.551432
  H      -3.765464     -0.855851     -3.912662
  H      -4.008444      0.416887     -2.666875
  H       1.891298      2.379982      0.822668
  H       0.261916      3.048796      0.555478
  H       0.991183      3.925252     -1.696472
  H       2.624042      3.250220     -1.426539
  H       2.022974      4.574783     -0.395655
38
Coordinates from ORCA-job opt E -1980.498350862293
  C       2.462469     -1.444446      2.683887
  C       3.419246     -1.163678      1.543981
  O       2.695190     -0.808470      0.353702
  C       2.206051     -1.785802     -0.406512
  O       2.422671     -2.959100     -0.223951
  C       1.312415     -1.227779     -1.489917
  C       0.004827     -0.656313     -0.919007
  S      -0.939258     -1.973370     -0.064310
  P      -2.883047     -1.376782     -0.496730
  S      -4.182705     -2.558324      0.302773
  O      -2.997234      0.181896     -0.115588
  C      -3.269448      0.622632      1.215813
  O      -2.848417     -1.267387     -2.096871
  C      -3.963469     -0.735318     -2.821367
  C       0.246737      0.545657     -0.006148
  O      -0.054403      0.622936      1.158025
  O       0.839689      1.510924     -0.687235
  C       1.205288      2.701535      0.030060
  C       1.809170      3.670448     -0.956393
  H       3.026456     -1.641105      3.607181
  H       1.800263     -0.583331      2.852297
  H       1.841161     -2.325731      2.466663
  H       4.057368     -0.295919      1.753547
  H       4.059070     -2.029349      1.322549
  H       1.086055     -2.025354     -2.207850
  H       1.837728     -0.415166     -2.011354
  H      -0.595172     -0.305056     -1.771310
  H      -3.386901      1.710924      1.161978
  H      -4.193619      0.163104      1.594485
  H      -2.425108      0.376439      1.875165
  H      -4.882722     -1.281260     -2.562789
  H      -3.737360     -0.874500     -3.884267
  H      -4.089751      0.333685     -2.600786
  H       1.918774      2.420245      0.820183
  H       0.305673      3.109355      0.514860
  H       1.085079      3.933404     -1.741097
  H       2.702346      3.239235     -1.431494
  H       2.104889      4.591119     -0.434014
38
Coordinates from ORCA-job opt E -1980.498351601553
  C       2.393465     -1.587106      2.654546
  C       3.351804     -1.151666      1.565727
  O       2.627410     -0.774845      0.381970
  C       2.215804     -1.733286     -0.445313
  O       2.515759     -2.897097     -0.335704
  C       1.297216     -1.166662     -1.502835
  C       0.006518     -0.596583     -0.896238
  S      -0.903665     -1.913934     -0.002900
  P      -2.862397     -1.381996     -0.449872
  S      -4.135367     -2.571607      0.378665
  O      -3.011305      0.182639     -0.110090
  C      -3.294980      0.651573      1.209567
  O      -2.832466     -1.315377     -2.054597
  C      -3.969710     -0.844376     -2.786270
  C       0.259627      0.616386     -0.000103
  O      -0.070678      0.726415      1.153705
  O       0.883324      1.556835     -0.686993
  C       1.258509      2.754568      0.011747
  C       1.906128      3.688169     -0.980855
  H       2.945865     -1.801522      3.580827
  H       1.656857     -0.797062      2.859056
  H       1.856272     -2.500076      2.358360
  H       3.911520     -0.251533      1.848964
  H       4.064833     -1.946129      1.304189
  H       1.054354     -1.957455     -2.222492
  H       1.812797     -0.350289     -2.028843
  H      -0.622421     -0.254573     -1.731664
  H      -3.493685      1.725468      1.117625
  H      -4.174745      0.138775      1.623727
  H      -2.421187      0.491383      1.857326
  H      -4.857200     -1.446540     -2.541460
  H      -3.724713     -0.963535     -3.847487
  H      -4.163650      0.213650     -2.561520
  H       1.946173      2.475558      0.825374
  H       0.357490      3.192630      0.466932
  H       1.206379      3.948017     -1.788374
  H       2.800645      3.227516     -1.424964
  H       2.209418      4.613667     -0.471574
38
Coordinates from ORCA-job opt E -1980.498451595935
  C       2.439709     -1.550002      2.666925
  C       3.380301     -1.142604      1.552668
  O       2.641017     -0.776492      0.373974
  C       2.216794     -1.743119     -0.437636
  O       2.512832     -2.906676     -0.317492
  C       1.292812     -1.186519     -1.496539
  C      -0.002552     -0.615375     -0.898394
  S      -0.923421     -1.932464     -0.018726
  P      -2.876883     -1.378204     -0.465315
  S      -4.163491     -2.558727      0.353146
  O      -3.013202      0.187104     -0.119846
  C      -3.298408      0.653397      1.201065
  O      -2.840332     -1.304213     -2.069449
  C      -3.972563     -0.820870     -2.801826
  C       0.246926      0.594449      0.002291
  O      -0.075438      0.694697      1.159052
  O       0.859281      1.543789     -0.683585
  C       1.234263      2.736960      0.024153
  C       1.890676      3.673575     -0.959843
  H       3.010511     -1.760914      3.582779
  H       1.719346     -0.746724      2.878409
  H       1.883031     -2.458417      2.394083
  H       3.953518     -0.243237      1.810608
  H       4.081078     -1.948471      1.293261
  H       1.052097     -1.983706     -2.209886
  H       1.806052     -0.372552     -2.028582
  H      -0.624807     -0.271873     -1.738055
  H      -3.438180      1.737554      1.122252
  H      -4.213365      0.181857      1.587015
  H      -2.449631      0.438069      1.865092
  H      -4.875967     -1.384361     -2.525006
  H      -3.748476     -0.982277     -3.862096
  H      -4.126861      0.249750     -2.608391
  H       1.915134      2.451918      0.841244
  H       0.331428      3.175859      0.475147
  H       1.196836      3.939250     -1.770560
  H       2.787552      3.213535     -1.399784
  H       2.192379      4.596036     -0.443990
38
Coordinates from ORCA-job opt E -1980.498492303083
  C       2.453575     -1.566113      2.677339
  C       3.384763     -1.152733      1.557636
  O       2.637601     -0.782696      0.385370
  C       2.221385     -1.746474     -0.434277
  O       2.528245     -2.908085     -0.325488
  C       1.295474     -1.189555     -1.491630
  C      -0.001519     -0.616234     -0.898232
  S      -0.925581     -1.931215     -0.022466
  P      -2.878185     -1.371499     -0.467256
  S      -4.165108     -2.550697      0.351674
  O      -3.012333      0.194199     -0.121285
  C      -3.296316      0.661092      1.199878
  O      -2.839868     -1.296307     -2.070343
  C      -3.973425     -0.819063     -2.805513
  C       0.244420      0.596270     -0.001131
  O      -0.072332      0.696220      1.157040
  O       0.849278      1.548566     -0.691426
  C       1.219242      2.743129      0.017972
  C       1.878449      3.680464     -0.963537
  H       3.034041     -1.779211      3.586557
  H       1.734772     -0.764052      2.898909
  H       1.894185     -2.473628      2.406800
  H       3.956800     -0.252606      1.816177
  H       4.086936     -1.955040      1.291584
  H       1.054724     -1.987949     -2.203648
  H       1.810887     -0.377978     -2.025612
  H      -0.621660     -0.276153     -1.740729
  H      -3.412549      1.748268      1.126119
  H      -4.225358      0.208028      1.574445
  H      -2.458424      0.423826      1.870177
  H      -4.878081     -1.373741     -2.515417
  H      -3.755997     -0.996883     -3.864502
  H      -4.120082      0.255100     -2.626399
  H       1.896535      2.459928      0.838521
  H       0.313368      3.180861      0.463936
  H       1.187669      3.945368     -1.777119
  H       2.778522      3.222798     -1.399316
  H       2.175949      4.603797     -0.446649
38
Coordinates from ORCA-job opt E -1980.498524290769
  C       2.450999     -1.616652      2.674954
  C       3.368476     -1.150251      1.564916
  O       2.609523     -0.776204      0.402000
  C       2.227698     -1.731604     -0.444156
  O       2.574985     -2.884113     -0.367143
  C       1.288509     -1.176864     -1.491013
  C      -0.003966     -0.602145     -0.890345
  S      -0.922153     -1.914602     -0.006557
  P      -2.877837     -1.368237     -0.455264
  S      -4.158284     -2.547073      0.373855
  O      -3.020581      0.199849     -0.123325
  C      -3.303235      0.678564      1.193908
  O      -2.837621     -1.306359     -2.058238
  C      -3.974773     -0.849020     -2.800945
  C       0.243624      0.614368      0.000149
  O      -0.078234      0.723655      1.155938
  O       0.856350      1.560038     -0.693583
  C       1.224982      2.757476      0.012443
  C       1.898729      3.685732     -0.967811
  H       3.038838     -1.826891      3.580124
  H       1.706323     -0.842833      2.911514
  H       1.921512     -2.536895      2.387582
  H       3.912504     -0.239058      1.844593
  H       4.095286     -1.924008      1.281292
  H       1.043273     -1.976693     -2.199850
  H       1.800771     -0.367378     -2.031725
  H      -0.629909     -0.265940     -1.730207
  H      -3.423950      1.764526      1.110370
  H      -4.230830      0.226527      1.573603
  H      -2.463931      0.450499      1.865411
  H      -4.874267     -1.408891     -2.505130
  H      -3.754423     -1.036782     -3.857560
  H      -4.131062      0.225773     -2.634276
  H       1.892105      2.476436      0.841927
  H       0.316517      3.202446      0.445741
  H       1.217486      3.949879     -1.789655
  H       2.801180      3.222006     -1.392080
  H       2.195382      4.610716     -0.453297
38
Coordinates from ORCA-job opt E -1980.498543479193
  C       2.432877     -1.672682      2.671765
  C       3.346313     -1.156660      1.580319
  O       2.584362     -0.775212      0.422214
  C       2.236862     -1.718095     -0.452386
  O       2.619923     -2.860759     -0.405700
  C       1.289828     -1.162207     -1.491605
  C       0.000624     -0.587398     -0.885660
  S      -0.910460     -1.898004      0.007963
  P      -2.869989     -1.366112     -0.441270
  S      -4.141029     -2.547324      0.399330
  O      -3.021775      0.203256     -0.119859
  C      -3.303319      0.689457      1.194689
  O      -2.832813     -1.314698     -2.044245
  C      -3.973691     -0.871512     -2.789782
  C       0.247976      0.634106     -0.002165
  O      -0.079646      0.753168      1.150960
  O       0.864703      1.574352     -0.700477
  C       1.227958      2.777755     -0.001774
  C       1.910661      3.697267     -0.984052
  H       3.018518     -1.883737      3.578206
  H       1.664328     -0.925065      2.916360
  H       1.932503     -2.601670      2.361350
  H       3.864201     -0.238705      1.886297
  H       4.095012     -1.904133      1.283504
  H       1.042539     -1.961174     -2.200750
  H       1.801241     -0.353592     -2.034850
  H      -0.630248     -0.255922     -1.723795
  H      -3.433930      1.773692      1.103389
  H      -4.225778      0.232910      1.581518
  H      -2.459496      0.473823      1.864616
  H      -4.867583     -1.439689     -2.493002
  H      -3.750113     -1.060236     -3.845523
  H      -4.140844      0.202211     -2.626843
  H       1.887754      2.504050      0.835938
  H       0.315860      3.226942      0.419376
  H       1.236836      3.954988     -1.814049
  H       2.816620      3.230006     -1.396810
  H       2.203215      4.626605     -0.475039
38
Coordinates from ORCA-job opt E -1980.498599577858
  C       2.373878     -1.816857      2.662325
  C       3.279463     -1.174658      1.632247
  O       2.518176     -0.776595      0.480265
  C       2.263681     -1.681343     -0.463667
  O       2.735497     -2.790932     -0.484258
  C       1.304169     -1.126601     -1.491974
  C       0.018470     -0.553303     -0.881785
  S      -0.874650     -1.859745      0.036312
  P      -2.844107     -1.361760     -0.407691
  S      -4.089815     -2.555253      0.454600
  O      -3.018021      0.207561     -0.098833
  C      -3.291152      0.699075      1.215067
  O      -2.818157     -1.323809     -2.010383
  C      -3.968692     -0.906522     -2.755702
  C       0.258384      0.683854     -0.018485
  O      -0.085963      0.829066      1.126533
  O       0.882379      1.610725     -0.729546
  C       1.227022      2.832577     -0.054140
  C       1.934732      3.726669     -1.042112
  H       2.945149     -2.034919      3.576331
  H       1.546241     -1.139710      2.919119
  H       1.952032     -2.760194      2.285743
  H       3.724628     -0.245211      2.009575
  H       4.084413     -1.850387      1.311620
  H       1.058645     -1.924914     -2.202634
  H       1.815398     -0.319985     -2.039438
  H      -0.621284     -0.237729     -1.719498
  H      -3.441106      1.780321      1.117018
  H      -4.201285      0.231407      1.617547
  H      -2.435032      0.502965      1.875584
  H      -4.849228     -1.494930     -2.458730
  H      -3.740634     -1.089794     -3.811409
  H      -4.159486      0.163262     -2.593012
  H       1.864750      2.583213      0.807804
  H       0.303578      3.291830      0.329968
  H       1.283432      3.961633     -1.896583
  H       2.851982      3.250999     -1.418788
  H       2.212513      4.669992     -0.550831
38
Coordinates from ORCA-job opt E -1980.498633539702
  C       2.374183     -1.866131      2.652277
  C       3.259522     -1.171521      1.638716
  O       2.485850     -0.772244      0.495828
  C       2.269594     -1.657738     -0.475622
  O       2.787002     -2.745587     -0.529305
  C       1.294432     -1.108482     -1.492232
  C       0.013508     -0.536108     -0.873131
  S      -0.870883     -1.841135      0.055232
  P      -2.844164     -1.361963     -0.393008
  S      -4.080469     -2.553135      0.486221
  O      -3.029651      0.209918     -0.104320
  C      -3.305099      0.716536      1.203138
  O      -2.819321     -1.343916     -1.995705
  C      -3.972033     -0.943738     -2.747008
  C       0.255366      0.704123     -0.015035
  O      -0.098342      0.859664      1.125675
  O       0.892428      1.622154     -0.726620
  C       1.238330      2.846359     -0.056163
  C       1.965947      3.727130     -1.041603
  H       2.950132     -2.082573      3.563769
  H       1.523216     -1.222693      2.919921
  H       1.985814     -2.815605      2.255421
  H       3.673530     -0.237190      2.038807
  H       4.086496     -1.812856      1.303835
  H       1.045858     -1.908855     -2.199588
  H       1.800055     -0.303254     -2.047330
  H      -0.632800     -0.223756     -1.707169
  H      -3.455344      1.796513      1.092081
  H      -4.216072      0.253803      1.609533
  H      -2.450472      0.529105      1.867938
  H      -4.850261     -1.529788     -2.438859
  H      -3.744399     -1.144629     -3.799578
  H      -4.165848      0.128141     -2.602812
  H       1.863087      2.598729      0.815681
  H       0.313803      3.316023      0.312450
  H       1.327615      3.961659     -1.905939
  H       2.883818      3.241314     -1.403545
  H       2.245573      4.671727     -0.553790
38
Coordinates from ORCA-job opt E -1980.498449424190
  C       2.457178     -1.785204      2.669857
  C       3.261621     -1.052505      1.616527
  O       2.432959     -0.711272      0.492445
  C       2.272656     -1.599541     -0.485526
  O       2.868041     -2.646531     -0.553585
  C       1.262178     -1.112435     -1.500301
  C      -0.032564     -0.558571     -0.896535
  S      -0.918701     -1.872354      0.021971
  P      -2.894267     -1.386591     -0.416524
  S      -4.128638     -2.585044      0.457561
  O      -3.091762      0.182604     -0.116001
  C      -3.351594      0.675516      1.199426
  O      -2.875082     -1.355172     -2.019465
  C      -4.015663     -0.911220     -2.763598
  C       0.200126      0.674391     -0.024902
  O      -0.179259      0.828327      1.107464
  O       0.885736      1.576794     -0.708782
  C       1.260756      2.784313     -0.026402
  C       2.070252      3.624852     -0.982524
  H       3.082887     -1.982151      3.552604
  H       1.593442     -1.179837      2.982450
  H       2.090592     -2.748762      2.283426
  H       3.635585     -0.091793      1.992644
  H       4.110934     -1.652200      1.260411
  H       1.039422     -1.937943     -2.187883
  H       1.741146     -0.308889     -2.080822
  H      -0.667727     -0.244335     -1.738616
  H      -3.409567      1.766584      1.113305
  H      -4.303977      0.278195      1.579110
  H      -2.530099      0.408603      1.877773
  H      -4.924688     -1.423602     -2.415479
  H      -3.824399     -1.172134     -3.810329
  H      -4.135750      0.176180     -2.662439
  H       1.838332      2.509170      0.869395
  H       0.345886      3.298592      0.305443
  H       1.480920      3.888151     -1.872876
  H       2.975352      3.090448     -1.306377
  H       2.377737      4.555369     -0.484686
38
Coordinates from ORCA-job opt E -1980.498668208613
  C       2.411162     -1.896043      2.649109
  C       3.248747     -1.148175      1.633423
  O       2.442141     -0.760166      0.509694
  C       2.270135     -1.622097     -0.491182
  O       2.848690     -2.675778     -0.585842
  C       1.268116     -1.090344     -1.491350
  C      -0.008064     -0.518984     -0.863015
  S      -0.883039     -1.821921      0.077221
  P      -2.859638     -1.367565     -0.383231
  S      -4.087293     -2.559059      0.508099
  O      -3.066326      0.206063     -0.117690
  C      -3.345966      0.728287      1.182585
  O      -2.829361     -1.371043     -1.986072
  C      -3.979385     -0.981458     -2.746801
  C       0.237206      0.723525     -0.008659
  O      -0.134961      0.892095      1.124200
  O       0.899462      1.627645     -0.714830
  C       1.256254      2.849603     -0.046871
  C       2.027218      3.704462     -1.022094
  H       3.013207     -2.111815      3.543685
  H       1.543286     -1.290106      2.949314
  H       2.048149     -2.849994      2.238545
  H       3.631479     -0.204791      2.043495
  H       4.095482     -1.749361      1.274378
  H       1.017217     -1.898721     -2.188922
  H       1.761274     -0.288480     -2.062648
  H      -0.661497     -0.210058     -1.692871
  H      -3.478071      1.809447      1.060497
  H      -4.267491      0.283090      1.584676
  H      -2.501420      0.535600      1.858342
  H      -4.863928     -1.547161     -2.419000
  H      -3.756801     -1.218028     -3.793099
  H      -4.160495      0.096546     -2.635657
  H       1.855316      2.595694      0.841122
  H       0.334553      3.343274      0.296725
  H       1.415049      3.947160     -1.902954
  H       2.940607      3.192695     -1.358798
  H       2.318987      4.645960     -0.535365
38
Coordinates from ORCA-job opt E -1980.498682968222
  C       2.412653     -1.907280      2.646442
  C       3.244511     -1.150933      1.632525
  O       2.432815     -0.760521      0.513352
  C       2.265889     -1.616010     -0.493945
  O       2.849885     -2.665932     -0.595966
  C       1.262209     -1.082775     -1.491418
  C      -0.010785     -0.509999     -0.858512
  S      -0.882233     -1.811313      0.087592
  P      -2.859696     -1.368424     -0.378790
  S      -4.083825     -2.562875      0.513560
  O      -3.074019      0.204898     -0.118474
  C      -3.356893      0.730440      1.179742
  O      -2.826739     -1.376828     -1.981715
  C      -3.977865     -0.995763     -2.745010
  C       0.237523      0.733917     -0.007098
  O      -0.140634      0.907986      1.123004
  O       0.907646      1.632690     -0.712453
  C       1.264756      2.855966     -0.047210
  C       2.042086      3.705369     -1.022215
  H       3.017649     -2.125136      3.538507
  H       1.542892     -1.306681      2.951655
  H       2.052644     -2.860737      2.232056
  H       3.625248     -0.208122      2.045861
  H       4.092404     -1.746947      1.267630
  H       1.007971     -1.890593     -2.188436
  H       1.754838     -0.281636     -2.064250
  H      -0.668149     -0.201798     -1.685526
  H      -3.503919      1.809042      1.052415
  H      -4.271016      0.274946      1.587143
  H      -2.507623      0.552421      1.853795
  H      -4.857484     -1.572629     -2.423449
  H      -3.748571     -1.224425     -3.791617
  H      -4.171368      0.079594     -2.629183
  H       1.859859      2.603377      0.843850
  H       0.343190      3.353242      0.291455
  H       1.433844      3.947435     -1.905965
  H       2.954608      3.188832     -1.353909
  H       2.335703      4.647200     -0.537285
38
Coordinates from ORCA-job opt E -1980.498718433844
  C       2.434904     -1.958004      2.634240
  C       3.230356     -1.159306      1.624435
  O       2.388331     -0.762453      0.529986
  C       2.248962     -1.582572     -0.510424
  O       2.868467     -2.606811     -0.654681
  C       1.230138     -1.045493     -1.490079
  C      -0.029547     -0.468977     -0.836251
  S      -0.884376     -1.764594      0.134124
  P      -2.864893     -1.373283     -0.358824
  S      -4.072852     -2.574519      0.546775
  O      -3.112210      0.199968     -0.131996
  C      -3.410086      0.746962      1.154001
  O      -2.820701     -1.413476     -1.961736
  C      -3.974664     -1.067873     -2.737324
  C       0.230925      0.780258      0.003773
  O      -0.172021      0.977731      1.121510
  O       0.935353      1.655592     -0.696734
  C       1.298001      2.882448     -0.041835
  C       2.115388      3.701282     -1.010498
  H       3.061763     -2.188225      3.507901
  H       1.559611     -1.383983      2.972852
  H       2.085044     -2.907003      2.201285
  H       3.598966     -0.217576      2.051293
  H       4.083697     -1.727160      1.228873
  H       0.962270     -1.851710     -2.183839
  H       1.716813     -0.246788     -2.071503
  H      -0.704034     -0.163822     -1.650676
  H      -3.595136      1.816311      1.001308
  H      -4.305910      0.268916      1.575904
  H      -2.552747      0.614725      1.828612
  H      -4.840433     -1.669191     -2.422814
  H      -3.728466     -1.292229     -3.781025
  H      -4.201430      0.001530     -2.626502
  H       1.867243      2.633146      0.866963
  H       0.378370      3.401883      0.267576
  H       1.532890      3.942714     -1.911584
  H       3.022832      3.158247     -1.312496
  H       2.419182      4.643334     -0.532431
38
Coordinates from ORCA-job opt E -1980.498746009067
  C       2.442660     -2.006408      2.625102
  C       3.212254     -1.170167      1.625851
  O       2.351086     -0.768969      0.547464
  C       2.239111     -1.556863     -0.520611
  O       2.888548     -2.557264     -0.697161
  C       1.210838     -1.016900     -1.488650
  C      -0.040497     -0.438999     -0.821964
  S      -0.881676     -1.730607      0.166666
  P      -2.863975     -1.377016     -0.342893
  S      -4.059000     -2.581186      0.575958
  O      -3.132594      0.196000     -0.141438
  C      -3.435043      0.759089      1.136767
  O      -2.813726     -1.441804     -1.945301
  C      -3.969077     -1.117499     -2.728020
  C       0.225860      0.815314      0.008583
  O      -0.191333      1.028841      1.118154
  O       0.949422      1.675765     -0.690338
  C       1.315443      2.905964     -0.043993
  C       2.159083      3.702981     -1.008474
  H       3.083571     -2.248260      3.485325
  H       1.562023     -1.456316      2.988405
  H       2.103427     -2.949867      2.172016
  H       3.565884     -0.229948      2.068493
  H       4.072591     -1.711772      1.209455
  H       0.935498     -1.821658     -2.181259
  H       1.693899     -0.219428     -2.074825
  H      -0.726855     -0.137604     -1.627967
  H      -3.639502      1.822293      0.967038
  H      -4.320106      0.271811      1.570588
  H      -2.572086      0.653035      1.809119
  H      -4.828660     -1.726518     -2.411262
  H      -3.716443     -1.348307     -3.768791
  H      -4.209836     -0.050078     -2.627914
  H       1.866182      2.661383      0.877395
  H       0.397036      3.440027      0.243557
  H       1.594554      3.940926     -1.921810
  H       3.063602      3.143529     -1.288580
  H       2.467836      4.646481     -0.536529
38
Coordinates from ORCA-job opt E -1980.498801474451
  C       2.459688     -2.068580      2.606007
  C       3.193232     -1.184257      1.621561
  O       2.307624     -0.779144      0.564507
  C       2.225706     -1.523999     -0.536830
  O       2.914445     -2.488740     -0.756967
  C       1.180153     -0.981464     -1.484713
  C      -0.057409     -0.398903     -0.798736
  S      -0.883150     -1.683642      0.212089
  P      -2.866832     -1.378191     -0.320032
  S      -4.047684     -2.580277      0.619719
  O      -3.163163      0.194431     -0.159050
  C      -3.474257      0.785620      1.104305
  O      -2.805119     -1.481031     -1.920228
  C      -3.960607     -1.193071     -2.716905
  C       0.220180      0.859868      0.021181
  O      -0.214043      1.094790      1.119895
  O       0.970557      1.699517     -0.674716
  C       1.343619      2.932369     -0.037604
  C       2.215596      3.704252     -0.997399
  H       3.118135     -2.317668      3.450781
  H       1.569781     -1.553005      2.996511
  H       2.139237     -3.007440      2.130298
  H       3.526182     -0.246534      2.085186
  H       4.063078     -1.689429      1.180113
  H       0.891633     -1.785637     -2.172725
  H       1.657130     -0.187499     -2.080759
  H      -0.758482     -0.099919     -1.593036
  H      -3.706307      1.838127      0.905892
  H      -4.344755      0.288576      1.556205
  H      -2.605757      0.720037      1.774688
  H      -4.810733     -1.812799     -2.395405
  H      -3.695867     -1.437343     -3.751585
  H      -4.222696     -0.128916     -2.637762
  H       1.875017      2.691552      0.896054
  H       0.428725      3.483698      0.227638
  H       1.669756      3.940394     -1.922468
  H       3.114816      3.126202     -1.255979
  H       2.532574      4.648057     -0.531573
38
Coordinates from ORCA-job opt E -1980.498875748915
  C       2.464410     -2.144723      2.587202
  C       3.162323     -1.202198      1.631315
  O       2.257987     -0.794436      0.591138
  C       2.215619     -1.489580     -0.544432
  O       2.945864     -2.413342     -0.803026
  C       1.158433     -0.946759     -1.479000
  C      -0.068404     -0.359266     -0.780764
  S      -0.880022     -1.635909      0.252381
  P      -2.864613     -1.377581     -0.298569
  S      -4.029768     -2.582426      0.657421
  O      -3.188564      0.192344     -0.168316
  C      -3.498975      0.803270      1.085792
  O      -2.793299     -1.509375     -1.896400
  C      -3.949800     -1.255550     -2.703016
  C       0.216794      0.905971      0.026234
  O      -0.232993      1.162581      1.113819
  O       0.989319      1.725990     -0.668857
  C       1.364646      2.965219     -0.045853
  C       2.262339      3.710840     -1.002785
  H       3.136338     -2.403043      3.418506
  H       1.561242     -1.673134      3.002003
  H       2.170707     -3.075380      2.079226
  H       3.464695     -0.269581      2.125273
  H       4.046976     -1.661417      1.169698
  H       0.861104     -1.751547     -2.162802
  H       1.632220     -0.157597     -2.084067
  H      -0.781121     -0.064867     -1.566439
  H      -3.759942      1.845087      0.867697
  H      -4.350728      0.294647      1.560019
  H      -2.620034      0.773915      1.745344
  H      -4.788229     -1.890006     -2.379549
  H      -3.673471     -1.505518     -3.733298
  H      -4.235711     -0.196575     -2.637883
  H       1.876361      2.734931      0.901333
  H       0.451396      3.531075      0.193236
  H       1.735584      3.937482     -1.941196
  H       3.158811      3.117814     -1.235799
  H       2.582505      4.658645     -0.547425
38
Coordinates from ORCA-job opt E -1980.498964276410
  C       2.479848     -2.215983      2.560997
  C       3.137369     -1.218602      1.632829
  O       2.212358     -0.809395      0.611718
  C       2.201626     -1.453335     -0.554535
  O       2.969722     -2.333698     -0.851682
  C       1.128795     -0.911165     -1.471401
  C      -0.084921     -0.317144     -0.758059
  S      -0.883095     -1.584523      0.296887
  P      -2.866876     -1.374605     -0.275837
  S      -4.018582     -2.577223      0.699307
  O      -3.218766      0.192084     -0.183842
  C      -3.532593      0.828514      1.056631
  O      -2.781761     -1.541469     -1.869677
  C      -3.937330     -1.329933     -2.689664
  C       0.211786      0.952512      0.037559
  O      -0.251566      1.230878      1.114078
  O       1.009227      1.750698     -0.654967
  C       1.389990      2.994677     -0.044797
  C       2.314671      3.712597     -0.997241
  H       3.167824     -2.479890      3.377299
  H       1.565458     -1.789812      2.999780
  H       2.212320     -3.137883      2.023521
  H       3.410954     -0.292856      2.155728
  H       4.034081     -1.631658      1.151372
  H       0.819463     -1.717737     -2.148056
  H       1.597127     -0.128213     -2.088734
  H      -0.809638     -0.025173     -1.533682
  H      -3.816623      1.858914      0.814380
  H      -4.370149      0.314984      1.550562
  H      -2.648101      0.833971      1.709419
  H      -4.764313     -1.975284     -2.358457
  H      -3.648084     -1.595705     -3.712419
  H      -4.246467     -0.276245     -2.649570
  H       1.881442      2.773126      0.915088
  H       0.480351      3.576374      0.168539
  H       1.807695      3.931209     -1.948357
  H       3.206730      3.103780     -1.205031
  H       2.640029      4.663214     -0.551525
38
Coordinates from ORCA-job opt E -1980.499045996345
  C       2.481883     -2.332534      2.510168
  C       3.095190     -1.252332      1.645541
  O       2.158923     -0.818536      0.645029
  C       2.176310     -1.403066     -0.552384
  O       2.966396     -2.251767     -0.883158
  C       1.088925     -0.859962     -1.450892
  C      -0.107812     -0.254811     -0.720267
  S      -0.894166     -1.507355      0.358772
  P      -2.872999     -1.359433     -0.253902
  S      -4.014237     -2.547576      0.750524
  O      -3.255525      0.203886     -0.219613
  C      -3.526239      0.883231      1.008469
  O      -2.761839     -1.579548     -1.838146
  C      -3.912898     -1.454667     -2.682063
  C       0.216697      1.010744      0.070201
  O      -0.228015      1.297505      1.152505
  O       1.029336      1.789833     -0.627607
  C       1.423245      3.038745     -0.033450
  C       2.340072      3.741661     -1.004037
  H       3.192338     -2.624925      3.297017
  H       1.560723     -1.971978      2.991050
  H       2.239453     -3.223100      1.912446
  H       3.329643     -0.352944      2.229415
  H       4.008514     -1.603280      1.146217
  H       0.760629     -1.671405     -2.114327
  H       1.552452     -0.091175     -2.087878
  H      -0.842548      0.044197     -1.483364
  H      -3.824005      1.903767      0.741473
  H      -4.342947      0.385749      1.551820
  H      -2.616389      0.914471      1.624702
  H      -4.725418     -2.099306     -2.316359
  H      -3.604796     -1.780106     -3.681736
  H      -4.250039     -0.409421     -2.716965
  H       1.918533      2.827146      0.926346
  H       0.516664      3.626128      0.176460
  H       1.825710      3.941486     -1.955230
  H       3.235937      3.138140     -1.210266
  H       2.662304      4.702539     -0.578352
38
Coordinates from ORCA-job opt E -1980.499205963209
  C       2.508874     -2.366481      2.465862
  C       3.087457     -1.261001      1.610305
  O       2.122962     -0.824177      0.638708
  C       2.139743     -1.362735     -0.580390
  O       2.951136     -2.171631     -0.955749
  C       1.028989     -0.813188     -1.445592
  C      -0.141251     -0.198420     -0.682203
  S      -0.909299     -1.442461      0.421037
  P      -2.880872     -1.360961     -0.223069
  S      -4.011872     -2.540712      0.802582
  O      -3.297274      0.193723     -0.247598
  C      -3.602744      0.909676      0.951168
  O      -2.741868     -1.630507     -1.797861
  C      -3.884566     -1.562991     -2.659544
  C       0.209343      1.067165      0.097811
  O      -0.255183      1.385092      1.163123
  O       1.061242      1.811205     -0.590417
  C       1.477231      3.056429     -0.003791
  C       2.431848      3.721393     -0.964632
  H       3.238297     -2.660258      3.234590
  H       1.590062     -2.030531      2.968924
  H       2.271266     -3.251185      1.857110
  H       3.319782     -0.367814      2.204712
  H       3.995628     -1.586326      1.085174
  H       0.675209     -1.623875     -2.096317
  H       1.479257     -0.050254     -2.099366
  H      -0.895685      0.106047     -1.423935
  H      -3.933298      1.908215      0.643153
  H      -4.407086      0.404582      1.505763
  H      -2.701096      0.995342      1.574467
  H      -4.682844     -2.221291     -2.286679
  H      -3.553488     -1.905816     -3.645990
  H      -4.251932     -0.529515     -2.726699
  H       1.949604      2.842353      0.967070
  H       0.583922      3.671204      0.183439
  H       1.940509      3.926286     -1.926876
  H       3.311535      3.087225     -1.147375
  H       2.776462      4.676192     -0.542752
38
Coordinates from ORCA-job opt E -1980.499327841760
  C       2.540557     -2.347203      2.408348
  C       3.108031     -1.251673      1.533213
  O       2.114984     -0.793692      0.600735
  C       2.077528     -1.323629     -0.621852
  O       2.868890     -2.133133     -1.036482
  C       0.937424     -0.760290     -1.438879
  C      -0.193021     -0.134313     -0.625550
  S      -0.944924     -1.372623      0.498038
  P      -2.900753     -1.365016     -0.193996
  S      -4.034613     -2.525903      0.849422
  O      -3.347499      0.178351     -0.297237
  C      -3.691166      0.943986      0.860275
  O      -2.716026     -1.697155     -1.752867
  C      -3.841246     -1.705640     -2.639853
  C       0.203435      1.119812      0.152635
  O      -0.265807      1.462669      1.208520
  O       1.092836      1.825917     -0.525922
  C       1.555059      3.052201      0.065694
  C       2.537135      3.682161     -0.890972
  H       3.293712     -2.658622      3.146589
  H       1.648954     -1.994619      2.947811
  H       2.261880     -3.226000      1.807690
  H       3.380482     -0.362427      2.116634
  H       3.988067     -1.591822      0.971222
  H       0.544264     -1.568546     -2.069138
  H       1.364699     -0.002591     -2.113903
  H      -0.970589      0.191225     -1.333978
  H      -4.059927      1.910141      0.497710
  H      -4.479209      0.435470      1.434571
  H      -2.800033      1.097751      1.485991
  H      -4.624072     -2.376946     -2.257174
  H      -3.476242     -2.075720     -3.604298
  H      -4.243397     -0.689541     -2.755640
  H       2.018432      2.814486      1.035591
  H       0.686803      3.701036      0.255993
  H       2.055014      3.911030     -1.852500
  H       3.389179      3.011374     -1.074374
  H       2.921160      4.619493     -0.463905
38
Coordinates from ORCA-job opt E -1980.499437030270
  C       2.536940     -2.416421      2.357633
  C       3.071958     -1.268166      1.530363
  O       2.063575     -0.803244      0.617532
  C       2.047061     -1.273537     -0.629245
  O       2.866918     -2.034709     -1.078925
  C       0.893988     -0.709278     -1.427347
  C      -0.217474     -0.071412     -0.599806
  S      -0.953259     -1.293795      0.554320
  P      -2.897623     -1.364763     -0.164344
  S      -4.010202     -2.539603      0.886831
  O      -3.390313      0.161936     -0.303147
  C      -3.740084      0.946344      0.840016
  O      -2.684230     -1.720536     -1.714783
  C      -3.799076     -1.788164     -2.612019
  C       0.193413      1.190872      0.157844
  O      -0.295632      1.570256      1.192190
  O       1.114229      1.860669     -0.514582
  C       1.590555      3.090173      0.057904
  C       2.620423      3.665383     -0.882960
  H       3.299938     -2.740141      3.080403
  H       1.637491     -2.112390      2.913026
  H       2.280824     -3.275225      1.718864
  H       3.317820     -0.395901      2.150167
  H       3.960544     -1.557359      0.953552
  H       0.485560     -1.521198     -2.043322
  H       1.312667      0.037594     -2.119850
  H      -1.008817      0.251640     -1.294094
  H      -4.152690      1.887422      0.459262
  H      -4.496527      0.424586      1.444089
  H      -2.842956      1.149866      1.443257
  H      -4.553911     -2.491956     -2.231367
  H      -3.407435     -2.148787     -3.569602
  H      -4.246834     -0.792771     -2.740199
  H       2.016577      2.867314      1.048281
  H       0.735133      3.767388      0.202569
  H       2.176408      3.879053     -1.866119
  H       3.457794      2.965267     -1.018388
  H       3.017250      4.603592     -0.469841
38
Coordinates from ORCA-job opt E -1980.499510762633
  C       2.572366     -2.463757      2.290350
  C       3.058517     -1.269065      1.500070
  O       2.024711     -0.801647      0.617994
  C       2.000514     -1.232261     -0.643321
  O       2.828139     -1.963296     -1.127602
  C       0.825217     -0.668190     -1.408190
  C      -0.256168     -0.013063     -0.557006
  S      -0.982349     -1.215716      0.622634
  P      -2.909833     -1.357629     -0.132730
  S      -4.020463     -2.517758      0.936990
  O      -3.434972      0.151606     -0.338631
  C      -3.797939      0.977709      0.769997
  O      -2.656210     -1.763061     -1.664268
  C      -3.748295     -1.889872     -2.582917
  C       0.184172      1.245079      0.189976
  O      -0.306075      1.648890      1.214578
  O       1.134435      1.879452     -0.476629
  C       1.636167      3.102871      0.088092
  C       2.689351      3.642084     -0.848413
  H       3.354798     -2.785633      2.992927
  H       1.670001     -2.211220      2.866676
  H       2.338610     -3.307541      1.624154
  H       3.285617     -0.414190      2.150501
  H       3.948727     -1.508898      0.903462
  H       0.391307     -1.486090     -1.999270
  H       1.227775      0.062771     -2.126176
  H      -1.060763      0.319489     -1.231438
  H      -4.227236      1.894726      0.350707
  H      -4.545881      0.470029      1.396676
  H      -2.905558      1.222602      1.364518
  H      -4.505636     -2.580416     -2.183633
  H      -3.330881     -2.295883     -3.510964
  H      -4.201591     -0.906957     -2.773652
  H       2.046398      2.879682      1.084968
  H       0.796775      3.802845      0.216261
  H       2.260774      3.855290     -1.838494
  H       3.511590      2.921506     -0.968122
  H       3.103890      4.575515     -0.441912
38
Coordinates from ORCA-job opt E -1980.499149761646
  C       2.552914     -2.443020      2.235272
  C       3.011960     -1.176907      1.542528
  O       1.998351     -0.725759      0.630424
  C       1.971122     -1.220625     -0.605470
  O       2.784203     -1.997431     -1.043780
  C       0.790377     -0.696488     -1.388022
  C      -0.274332     -0.007891     -0.551509
  S      -1.018841     -1.170769      0.658496
  P      -2.928761     -1.375518     -0.139070
  S      -4.020538     -2.596178      0.883415
  O      -3.508515      0.119965     -0.308123
  C      -3.764529      0.928208      0.839435
  O      -2.644126     -1.727042     -1.676891
  C      -3.710872     -1.848324     -2.625087
  C       0.180850      1.253555      0.176934
  O      -0.283165      1.651029      1.216178
  O       1.121110      1.882979     -0.509523
  C       1.661489      3.088626      0.057082
  C       2.724375      3.603969     -0.882615
  H       3.304336     -2.756988      2.974911
  H       1.601565     -2.275487      2.760328
  H       2.418298     -3.257769      1.510994
  H       3.148914     -0.355005      2.256890
  H       3.947552     -1.328631      0.987118
  H       0.346694     -1.549528     -1.923020
  H       1.175836     -0.012988     -2.158499
  H      -1.081764      0.331525     -1.218780
  H      -4.247264      1.844724      0.480385
  H      -4.436996      0.408046      1.538304
  H      -2.816561      1.175897      1.342414
  H      -4.476887     -2.545136     -2.254607
  H      -3.267448     -2.243148     -3.545822
  H      -4.160328     -0.863483     -2.816964
  H       2.069597      2.848898      1.050743
  H       0.842279      3.811147      0.190442
  H       2.300568      3.824307     -1.873280
  H       3.534467      2.869903     -1.004576
  H       3.154070      4.531338     -0.478498
38
Coordinates from ORCA-job opt E -1980.499608327400
  C       2.586804     -2.466004      2.267178
  C       3.054717     -1.239587      1.513514
  O       2.023657     -0.772441      0.628337
  C       1.986961     -1.231758     -0.621785
  O       2.800918     -1.988732     -1.089488
  C       0.808019     -0.680679     -1.391204
  C      -0.267439     -0.014578     -0.543047
  S      -1.005908     -1.203928      0.642314
  P      -2.924017     -1.358907     -0.137088
  S      -4.036166     -2.528213      0.921249
  O      -3.459575      0.148231     -0.341398
  C      -3.787342      0.978895      0.774253
  O      -2.653530     -1.756724     -1.666573
  C      -3.731855     -1.879812     -2.601711
  C       0.184562      1.240075      0.200931
  O      -0.281957      1.633166      1.240600
  O       1.120535      1.878931     -0.481623
  C       1.640936      3.094239      0.084283
  C       2.683494      3.633742     -0.863904
  H       3.365915     -2.786390      2.974209
  H       1.670796     -2.248890      2.836020
  H       2.383078     -3.297436      1.576775
  H       3.251584     -0.398800      2.191191
  H       3.959823     -1.443072      0.925304
  H       0.368808     -1.509909     -1.963338
  H       1.204125      0.036132     -2.126311
  H      -1.071238      0.325553     -1.214715
  H      -4.221996      1.898113      0.365186
  H      -4.520848      0.479104      1.424194
  H      -2.877124      1.218662      1.343924
  H      -4.503904     -2.557395     -2.208454
  H      -3.304522     -2.299584     -3.518974
  H      -4.169540     -0.893241     -2.808915
  H       2.063087      2.860988      1.073719
  H       0.808397      3.799167      0.228685
  H       2.243175      3.853314     -1.847441
  H       3.503140      2.912977     -0.999157
  H       3.104429      4.564792     -0.458579
38
Coordinates from ORCA-job opt E -1980.499643451200
  C       2.612227     -2.482502      2.244650
  C       3.055282     -1.239335      1.503482
  O       2.011444     -0.773785      0.632465
  C       1.970881     -1.221211     -0.621873
  O       2.786915     -1.969284     -1.100320
  C       0.786756     -0.669316     -1.382717
  C      -0.280235      0.001355     -0.527062
  S      -1.019063     -1.183805      0.662697
  P      -2.930444     -1.354641     -0.127960
  S      -4.045299     -2.513541      0.938712
  O      -3.468823      0.148009     -0.356855
  C      -3.811798      0.994285      0.742511
  O      -2.648142     -1.772569     -1.650089
  C      -3.720232     -1.910572     -2.590345
  C       0.182207      1.254178      0.214182
  O      -0.283992      1.655104      1.251086
  O       1.124757      1.883170     -0.467957
  C       1.652640      3.096554      0.095081
  C       2.703909      3.623390     -0.850476
  H       3.401496     -2.799823      2.941634
  H       1.697314     -2.287008      2.823054
  H       2.416303     -3.308534      1.545331
  H       3.245646     -0.404221      2.189988
  H       3.958167     -1.421653      0.905035
  H       0.340394     -1.498256     -1.949429
  H       1.178798      0.045640     -2.121738
  H      -1.086956      0.346292     -1.192987
  H      -4.251844      1.902343      0.314893
  H      -4.544547      0.498764      1.396446
  H      -2.907607      1.252053      1.314086
  H      -4.490860     -2.588625     -2.195043
  H      -3.285180     -2.336760     -3.500993
  H      -4.162245     -0.928635     -2.809701
  H       2.068263      2.864222      1.087513
  H       0.825408      3.809078      0.232994
  H       2.269783      3.843131     -1.836709
  H       3.517389      2.894441     -0.978991
  H       3.131289      4.552067     -0.446433
38
Coordinates from ORCA-job opt E -1980.499695161700
  C       2.660198     -2.524154      2.202584
  C       3.052213     -1.237800      1.507883
  O       1.993422     -0.778854      0.651673
  C       1.954251     -1.211824     -0.607880
  O       2.777188     -1.945990     -1.096306
  C       0.764365     -0.663055     -1.361843
  C      -0.294688      0.017119     -0.503549
  S      -1.041006     -1.157165      0.692139
  P      -2.943367     -1.341665     -0.115779
  S      -4.066989     -2.481467      0.962073
  O      -3.480111      0.156146     -0.378421
  C      -3.840194      1.023362      0.698604
  O      -2.644645     -1.787992     -1.626484
  C      -3.706156     -1.943182     -2.575983
  C       0.179828      1.268669      0.232175
  O      -0.277236      1.674676      1.271177
  O       1.121736      1.890680     -0.457304
  C       1.659957      3.101754      0.100941
  C       2.716738      3.615880     -0.845273
  H       3.457966     -2.829612      2.895102
  H       1.733694     -2.388614      2.779763
  H       2.506083     -3.333989      1.474617
  H       3.207955     -0.421671      2.225202
  H       3.962825     -1.361553      0.905957
  H       0.310772     -1.494208     -1.919485
  H       1.153232      0.046132     -2.107993
  H      -1.101645      0.366725     -1.166986
  H      -4.279721      1.919889      0.246999
  H      -4.577043      0.538329      1.355756
  H      -2.943922      1.297876      1.274876
  H      -4.480468     -2.615060     -2.177383
  H      -3.260753     -2.384735     -3.474201
  H      -4.146294     -0.965751     -2.817663
  H       2.071834      2.870827      1.095214
  H       0.838770      3.822179      0.234569
  H       2.286018      3.835566     -1.833004
  H       3.524491      2.879912     -0.969822
  H       3.150704      4.542620     -0.443788
38
Coordinates from ORCA-job opt E -1980.499712470202
  C       2.699044     -2.577164      2.112318
  C       3.017357     -1.219234      1.524294
  O       1.949036     -0.765542      0.678048
  C       1.919268     -1.181740     -0.587336
  O       2.754428     -1.896783     -1.083954
  C       0.723132     -0.640919     -1.334904
  C      -0.317832      0.053665     -0.467444
  S      -1.068301     -1.106020      0.741041
  P      -2.953470     -1.329909     -0.093108
  S      -4.084116     -2.446557      1.001661
  O      -3.493018      0.156621     -0.405442
  C      -3.873847      1.047878      0.643437
  O      -2.628824     -1.818721     -1.585175
  C      -3.673902     -2.007416     -2.546539
  C       0.182461      1.301039      0.258417
  O      -0.254789      1.715643      1.302495
  O       1.122540      1.908737     -0.445866
  C       1.689587      3.109339      0.105841
  C       2.757968      3.594602     -0.842376
  H       3.494498     -2.875522      2.810530
  H       1.747342     -2.548258      2.663022
  H       2.626551     -3.340523      1.324484
  H       3.101129     -0.451250      2.303914
  H       3.947419     -1.234427      0.939184
  H       0.256744     -1.476540     -1.875071
  H       1.104036      0.057472     -2.095184
  H      -1.128457      0.413702     -1.121040
  H      -4.325103      1.924096      0.164603
  H      -4.604975      0.570384      1.312250
  H      -2.984072      1.351483      1.216643
  H      -4.448173     -2.676509     -2.143168
  H      -3.210088     -2.467517     -3.425931
  H      -4.118842     -1.040812     -2.820618
  H       2.095733      2.874450      1.101492
  H       0.885649      3.849836      0.236097
  H       2.333105      3.819377     -1.831505
  H       3.548906      2.839863     -0.962763
  H       3.211878      4.513177     -0.444188
38
Coordinates from ORCA-job opt E -1980.499738890455
  C       2.744427     -2.584097      2.100744
  C       3.043994     -1.227165      1.500436
  O       1.956941     -0.772731      0.677201
  C       1.904327     -1.179951     -0.590315
  O       2.732532     -1.889873     -1.105188
  C       0.696863     -0.634705     -1.318844
  C      -0.337265      0.068790     -0.448821
  S      -1.095659     -1.077891      0.765964
  P      -2.972845     -1.318667     -0.085076
  S      -4.110453     -2.431070      1.006714
  O      -3.524399      0.158759     -0.424134
  C      -3.916462      1.070898      0.603000
  O      -2.625582     -1.820873     -1.567513
  C      -3.656806     -2.032280     -2.539189
  C       0.172139      1.313537      0.274633
  O      -0.268947      1.737604      1.313299
  O       1.125390      1.906842     -0.424402
  C       1.702299      3.102948      0.127170
  C       2.772526      3.580888     -0.822785
  H       3.557506     -2.875644      2.781316
  H       1.805964     -2.557231      2.673974
  H       2.658042     -3.351444      1.317909
  H       3.145324     -0.456620      2.275450
  H       3.960674     -1.244035      0.894468
  H       0.222005     -1.471288     -1.850333
  H       1.071720      0.058689     -2.086595
  H      -1.146535      0.432483     -1.101906
  H      -4.376410      1.930612      0.102947
  H      -4.644687      0.601530      1.280874
  H      -3.033690      1.399182      1.171855
  H      -4.429729     -2.703332     -2.136583
  H      -3.177859     -2.499317     -3.406723
  H      -4.107306     -1.073584     -2.831488
  H       2.108548      2.863724      1.121774
  H       0.904258      3.849238      0.259628
  H       2.347114      3.810469     -1.810556
  H       3.557351      2.820302     -0.946209
  H       3.234690      4.495304     -0.424537
38
Coordinates from ORCA-job opt E -1980.499742356340
  C       2.696059     -2.545672      2.153260
  C       3.047654     -1.226799      1.499008
  O       1.975487     -0.768535      0.658184
  C       1.924961     -1.193868     -0.603297
  O       2.746257     -1.921291     -1.104551
  C       0.727001     -0.644804     -1.343445
  C      -0.317338      0.046027     -0.475864
  S      -1.066564     -1.115691      0.730216
  P      -2.956089     -1.332142     -0.099562
  S      -4.088282     -2.458904      0.983185
  O      -3.501159      0.154835     -0.402378
  C      -3.883888      1.041509      0.650544
  O      -2.632105     -1.808869     -1.596445
  C      -3.679242     -1.991667     -2.556768
  C       0.178032      1.292365      0.254915
  O      -0.267599      1.705049      1.296171
  O       1.124487      1.900454     -0.440602
  C       1.689921      3.098369      0.118290
  C       2.750895      3.595498     -0.832509
  H       3.502674     -2.846126      2.837685
  H       1.765071     -2.457747      2.732368
  H       2.569706     -3.337295      1.400615
  H       3.180237     -0.429317      2.241405
  H       3.961337     -1.303127      0.893179
  H       0.261783     -1.477107     -1.889905
  H       1.107659      0.058475     -2.099344
  H      -1.126960      0.403644     -1.131729
  H      -4.334321      1.920162      0.175233
  H      -4.617793      0.559618      1.313316
  H      -2.997474      1.343877      1.228333
  H      -4.455510     -2.658986     -2.154287
  H      -3.218481     -2.451269     -3.438085
  H      -4.121578     -1.022822     -2.827690
  H       2.103874      2.854906      1.108748
  H       0.884279      3.834486      0.260897
  H       2.318353      3.828321     -1.816409
  H       3.542354      2.843396     -0.965290
  H       3.206302      4.511049     -0.429235
38
Coordinates from ORCA-job opt E -1980.499758721861
  C       2.711773     -2.570474      2.117944
  C       3.036377     -1.226326      1.502209
  O       1.958726     -0.767475      0.668956
  C       1.909415     -1.182194     -0.595951
  O       2.733909     -1.901721     -1.103544
  C       0.708350     -0.633688     -1.331045
  C      -0.327849      0.063667     -0.459387
  S      -1.078512     -1.090633      0.753006
  P      -2.959979     -1.326314     -0.089065
  S      -4.095669     -2.443656      0.999741
  O      -3.508322      0.154626     -0.414814
  C      -3.899737      1.052996      0.624750
  O      -2.622440     -1.821245     -1.576975
  C      -3.660853     -2.020571     -2.543395
  C       0.178335      1.308240      0.267002
  O      -0.259801      1.724952      1.309800
  O       1.125278      1.909464     -0.433766
  C       1.701608      3.103716      0.121836
  C       2.765376      3.590410     -0.831164
  H       3.520762     -2.870066      2.799938
  H       1.775213     -2.520001      2.692473
  H       2.609222     -3.344226      1.343495
  H       3.147462     -0.447260      2.267298
  H       3.954579     -1.264966      0.899491
  H       0.236814     -1.466967     -1.870669
  H       1.085831      0.064966     -2.092778
  H      -1.139067      0.425394     -1.111123
  H      -4.351937      1.923580      0.136525
  H      -4.634086      0.576473      1.290871
  H      -3.017016      1.366367      1.202744
  H      -4.440288     -2.681835     -2.137035
  H      -3.191881     -2.494218     -3.412857
  H      -4.101227     -1.056679     -2.834319
  H       2.114609      2.858873      1.112338
  H       0.902284      3.846830      0.264030
  H       2.333733      3.824688     -1.815115
  H       3.550945      2.832024     -0.963258
  H       3.228063      4.503248     -0.430030
38
Coordinates from ORCA-job opt E -1980.499759386674
  C       2.722596     -2.576508      2.106135
  C       3.037783     -1.226531      1.498418
  O       1.956141     -0.767193      0.670553
  C       1.902782     -1.179040     -0.595053
  O       2.726834     -1.895881     -1.107203
  C       0.698774     -0.630189     -1.325218
  C      -0.333615      0.070262     -0.451285
  S      -1.086413     -1.080662      0.762746
  P      -2.964635     -1.322905     -0.085316
  S      -4.104140     -2.434963      1.004739
  O      -3.513952      0.155318     -0.422241
  C      -3.909561      1.060192      0.610098
  O      -2.619874     -1.826170     -1.568739
  C      -3.653509     -2.033474     -2.538610
  C       0.178098      1.312966      0.274496
  O      -0.257008      1.731086      1.317986
  O       1.126329      1.910761     -0.427439
  C       1.707575      3.102857      0.127832
  C       2.770056      3.587700     -0.827471
  H       3.535009     -2.874979      2.784542
  H       1.787062     -2.535527      2.683131
  H       2.623451     -3.346142      1.327140
  H       3.146329     -0.451886      2.268341
  H       3.954993     -1.256120      0.893642
  H       0.224170     -1.463789     -1.861607
  H       1.073943      0.066705     -2.089709
  H      -1.144855      0.434716     -1.101501
  H      -4.361534      1.926933      0.114902
  H      -4.645329      0.587129      1.277120
  H      -3.029223      1.378653      1.188771
  H      -4.436712     -2.688566     -2.129514
  H      -3.180847     -2.517370     -3.400402
  H      -4.089927     -1.071711     -2.842245
  H       2.122506      2.855532      1.116928
  H       0.910711      3.847977      0.273177
  H       2.336410      3.824426     -1.809949
  H       3.553395      2.827552     -0.962591
  H       3.236186      4.498843     -0.426445
38
Coordinates from ORCA-job opt E -1980.499765750486
  C       2.721993     -2.578732      2.104659
  C       3.038436     -1.229379      1.496258
  O       1.956227     -0.767974      0.670134
  C       1.900472     -1.178691     -0.595648
  O       2.722873     -1.896184     -1.109559
  C       0.696051     -0.627959     -1.323784
  C      -0.334689      0.073083     -0.448311
  S      -1.087497     -1.077138      0.766203
  P      -2.964550     -1.322401     -0.083880
  S      -4.105458     -2.433354      1.005753
  O      -3.514714      0.154778     -0.424252
  C      -3.912382      1.060970      0.606274
  O      -2.616996     -1.828230     -1.565864
  C      -3.648827     -2.037204     -2.537283
  C       0.179364      1.314707      0.277667
  O      -0.253695      1.732302      1.322199
  O       1.127123      1.912064     -0.425234
  C       1.709920      3.103571      0.129744
  C       2.769278      3.589836     -0.828293
  H       3.535987     -2.878866      2.780452
  H       1.788417     -2.536005      2.684673
  H       2.618986     -3.348053      1.325856
  H       3.149830     -0.454748      2.265792
  H       3.954506     -1.260752      0.889846
  H       0.220178     -1.460645     -1.860480
  H       1.070846      0.069212     -2.088221
  H      -1.146215      0.438749     -1.097501
  H      -4.363740      1.926983      0.109254
  H      -4.649252      0.588395      1.272420
  H      -3.033227      1.380485      1.186094
  H      -4.436554     -2.685519     -2.126064
  H      -3.176009     -2.529284     -3.394356
  H      -4.079533     -1.075394     -2.848869
  H       2.128085      2.854773      1.117124
  H       0.913368      3.848274      0.278763
  H       2.332497      3.827763     -1.809086
  H       3.552365      2.830029     -0.966747
  H       3.236537      4.500538     -0.427577
38
Coordinates from ORCA-job opt E -1980.499769532873
  C       2.718169     -2.580109      2.103112
  C       3.038648     -1.232619      1.492860
  O       1.956498     -0.767964      0.668374
  C       1.897005     -1.178480     -0.597215
  O       2.716721     -1.897609     -1.113159
  C       0.692071     -0.625026     -1.322359
  C      -0.335595      0.076699     -0.443802
  S      -1.088247     -1.073287      0.770864
  P      -2.963561     -1.322540     -0.082062
  S      -4.106359     -2.432354      1.006616
  O      -3.514535      0.153410     -0.426423
  C      -3.915389      1.060600      0.602120
  O      -2.612233     -1.831439     -1.562222
  C      -3.641571     -2.041616     -2.536019
  C       0.182512      1.316310      0.282829
  O      -0.246885      1.732739      1.329325
  O       1.128989      1.913396     -0.421914
  C       1.714016      3.104120      0.132491
  C       2.767710      3.593248     -0.830303
  H       3.533220     -2.883182      2.776336
  H       1.786774     -2.533188      2.686288
  H       2.609511     -3.349461      1.325124
  H       3.154513     -0.457428      2.261173
  H       3.953321     -1.267994      0.884562
  H       0.214087     -1.456195     -1.859509
  H       1.066186      0.072836     -2.086524
  H      -1.147774      0.444880     -1.090796
  H      -4.367726      1.924971      0.103150
  H      -4.652272      0.587485      1.267848
  H      -3.037557      1.382649      1.182538
  H      -4.437183     -2.678168     -2.121597
  H      -3.169319     -2.546924     -3.385701
  H      -4.061984     -1.079280     -2.859856
  H       2.137966      2.853079      1.116857
  H       0.917734      3.847783      0.287881
  H       2.325402      3.833036     -1.808153
  H       3.550560      2.834254     -0.974436
  H       3.236578      4.503369     -0.430136
38
Coordinates from ORCA-job opt E -1980.499766424528
  C       2.716486     -2.583561      2.101207
  C       3.038198     -1.235745      1.492292
  O       1.956010     -0.769035      0.668962
  C       1.895178     -1.178333     -0.596955
  O       2.713635     -1.898124     -1.113975
  C       0.690363     -0.622954     -1.320861
  C      -0.335784      0.079288     -0.441019
  S      -1.088560     -1.070109      0.774124
  P      -2.962549     -1.322400     -0.080731
  S      -4.105359     -2.432208      1.007984
  O      -3.514745      0.152581     -0.427438
  C      -3.917698      1.060543      0.599647
  O      -2.609146     -1.832826     -1.559883
  C      -3.637139     -2.043864     -2.534909
  C       0.184247      1.318119      0.285503
  O      -0.243015      1.734053      1.333062
  O       1.129726      1.915139     -0.420658
  C       1.715501      3.105988      0.132697
  C       2.766858      3.595748     -0.832354
  H       3.531729     -2.888708      2.773264
  H       1.785699     -2.536134      2.685285
  H       2.606023     -3.351739      1.322311
  H       3.155323     -0.461499      2.261367
  H       3.952428     -1.271433      0.883344
  H       0.211105     -1.453133     -1.858412
  H       1.064769      0.075136     -2.084684
  H      -1.148330      0.448703     -1.086892
  H      -4.371854      1.923131      0.099246
  H      -4.653490      0.586889      1.266189
  H      -3.040534      1.385387      1.179515
  H      -4.436732     -2.674312     -2.118814
  H      -3.165266     -2.555955     -3.380737
  H      -4.052328     -1.081401     -2.865064
  H       2.141831      2.854993      1.116042
  H       0.919214      3.849245      0.289971
  H       2.322355      3.835297     -1.809261
  H       3.549776      2.837123     -0.978054
  H       3.236074      4.506110     -0.433151
38
Coordinates from ORCA-job opt E -1980.499764674687
  C       2.714364     -2.584710      2.099781
  C       3.038249     -1.237428      1.490841
  O       1.956194     -0.768786      0.668422
  C       1.893009     -1.178679     -0.597241
  O       2.709533     -1.900198     -1.114891
  C       0.688273     -0.621296     -1.319749
  C      -0.335914      0.081716     -0.438290
  S      -1.089101     -1.067400      0.776929
  P      -2.961640     -1.322525     -0.080028
  S      -4.103744     -2.433308      1.008481
  O      -3.515354      0.151538     -0.428092
  C      -3.920831      1.059724      0.597742
  O      -2.606284     -1.833314     -1.558545
  C      -3.633215     -2.045678     -2.534447
  C       0.186523      1.319407      0.288418
  O      -0.238131      1.734596      1.337329
  O       1.130801      1.916485     -0.419306
  C       1.717791      3.107058      0.133311
  C       2.767204      3.597142     -0.833723
  H       3.528914     -2.891605      2.771869
  H       1.783565     -2.535596      2.683705
  H       2.602481     -3.352559      1.320767
  H       3.157097     -0.463447      2.259917
  H       3.951962     -1.274520      0.881210
  H       0.207300     -1.450483     -1.857255
  H       1.062990      0.076900     -2.083327
  H      -1.148853      0.452939     -1.082684
  H      -4.379721      1.919181      0.096275
  H      -4.653184      0.584180      1.266724
  H      -3.044077      1.389564      1.175399
  H      -4.435598     -2.671575     -2.116856
  H      -3.161560     -2.562894     -3.377271
  H      -4.044791     -1.083345     -2.869471
  H       2.146227      2.855855      1.115681
  H       0.921832      3.850279      0.292430
  H       2.320776      3.836785     -1.809722
  H       3.549842      2.838525     -0.980954
  H       3.237068      4.507475     -0.435218
38
Coordinates from ORCA-job opt E -1980.499764460783
  C       2.714059     -2.584669      2.099672
  C       3.038772     -1.237721      1.490400
  O       1.956777     -0.768594      0.668244
  C       1.892578     -1.179354     -0.597128
  O       2.708170     -1.901993     -1.114652
  C       0.688124     -0.621058     -1.319395
  C      -0.335547      0.082258     -0.437607
  S      -1.089210     -1.066869      0.777353
  P      -2.961320     -1.322458     -0.080261
  S      -4.102585     -2.433964      1.008469
  O      -3.515641      0.151375     -0.428145
  C      -3.922671      1.059113      0.597369
  O      -2.605834     -1.832704     -1.558873
  C      -3.632846     -2.045596     -2.534611
  C       0.187642      1.319456      0.289370
  O      -0.235447      1.733775      1.339245
  O       1.130705      1.917291     -0.419405
  C       1.718268      3.107540      0.133197
  C       2.767562      3.597452     -0.834090
  H       3.527861     -2.891865      2.772508
  H       1.782791     -2.534799      2.682794
  H       2.602251     -3.352714      1.320825
  H       3.158204     -0.463736      2.259388
  H       3.952339     -1.275456      0.880596
  H       0.206563     -1.449798     -1.857040
  H       1.063403      0.077141     -2.082711
  H      -1.148454      0.454189     -1.081648
  H      -4.383932      1.917193      0.095719
  H      -4.653356      0.582272      1.267260
  H      -3.046332      1.391313      1.174307
  H      -4.435813     -2.670197     -2.116205
  H      -3.161625     -2.564319     -3.376742
  H      -4.043595     -1.083326     -2.870816
  H       2.146944      2.856264      1.115434
  H       0.922597      3.851044      0.292539
  H       2.320940      3.837173     -1.809982
  H       3.549983      2.838655     -0.981556
  H       3.237675      4.507686     -0.435661
