41
Coordinates from ORCA-job opt E -1527.698155719553
  C          -3.66944325029443     -3.97377212412987     -0.53897285488435
  C          -2.48947945974696     -3.28578751491315      0.10421895397280
  O          -2.59186208605390     -1.87396221552196     -0.14970674562597
  P          -1.64205060199452     -0.83215808507670      0.60922951758257
  O          -1.63822555900613     -0.93851151688343      2.09241847948918
  N          -2.00469600360204      0.64867981779856      0.02632499716332
  C          -2.72509650731432      1.67757907813242      0.78546543744593
  C          -2.02933490410361      3.02385798442421      0.61817709820341
  C          -4.19846618180888      1.72437708013659      0.38945628271685
  O          -0.22569923468591     -1.22978346804905     -0.10915574693827
  C           0.92225787367282     -0.48389472271647      0.00297400108306
  C           1.24959001565565      0.22116104823961      1.16010731871428
  C           2.43703665532974      0.94853856709640      1.17937612677102
  C           3.29815688966942      0.97033730791877      0.07833445540535
  S           4.78878009406020      1.94611129859351      0.17821012620625
  C           5.98440275957668      0.69797019577246      0.72631634689124
  C           2.96493853990531      0.25430892617736     -1.09138942146991
  C           3.85203076973454      0.25254514924286     -2.30812661157928
  C           1.76817970560172     -0.46680791228639     -1.10515421002904
  H          -3.61063984165430     -5.05732587937356     -0.36169396656089
  H          -4.61450928462557     -3.60158238963899     -0.11703700498698
  H          -3.67732166106971     -3.79973658030615     -1.62499912351988
  H          -1.53717704515662     -3.65127783084553     -0.31284871406050
  H          -2.47249930961074     -3.45060791390421      1.19334236946809
  H          -1.97171683295894      0.77437369817961     -0.98306705547912
  H          -2.65322992877949      1.37489114381693      1.84163195414418
  H          -2.04413066770461      3.34097944158654     -0.43747316859218
  H          -2.53550495224448      3.79937625675244      1.21212699262997
  H          -0.98030705962538      2.96265179104531      0.94401693641970
  H          -4.67140959971160      0.74164592509206      0.53645288680493
  H          -4.30662852110382      2.00177600956100     -0.67191210864979
  H          -4.74399544317498      2.46577265939603      0.99257212425111
  H           0.59105799299123      0.19345428516112      2.03016386682838
  H           2.70700986869954      1.51177865397510      2.07628955394798
  H           5.68385803683817      0.27258818594651      1.69351176947672
  H           6.09741991852811     -0.10348356642297     -0.01692483231591
  H           6.94739692169860      1.21442592974310      0.84232453395030
  H           3.36439917041025     -0.26193800484317     -3.14691300842011
  H           4.09991741143338      1.27818732770346     -2.61716297835426
  H           4.80520985965654     -0.25920192773777     -2.10245003226430
  H           1.47178146256903     -1.02753612884260     -1.99505019583590
