41
Coordinates from ORCA-job opt E -1527.689363389498
  C      -3.516306     -3.552866     -0.803304
  C      -2.472910     -2.838339      0.030108
  O      -2.580918     -1.444809     -0.206916
  P      -1.453191     -0.503917      0.469219
  O      -1.216277     -0.853480      1.908117
  N      -1.961345      1.017535      0.142594
  C      -2.870517      1.684870      1.066070
  C      -2.937243      3.165829      0.695411
  C      -4.265689      1.065044      1.028517
  O      -0.192789     -0.798828     -0.492339
  C       1.042284     -0.230408     -0.361437
  C       1.405349      0.624792      0.671265
  C       2.698340      1.153013      0.711107
  C       3.641544      0.826635     -0.273818
  S       5.275570      1.548142     -0.153207
  C       5.929007      0.532934      1.197591
  C       3.276300     -0.032711     -1.325657
  C       4.234515     -0.411478     -2.421745
  C       1.971580     -0.556232     -1.351556
  H      -3.468970     -4.633917     -0.645416
  H      -4.521361     -3.201696     -0.546985
  H      -3.368141     -3.344220     -1.868021
  H      -1.471263     -3.184698     -0.243410
  H      -2.640735     -3.038154      1.092951
  H      -2.315903      1.084315     -0.804283
  H      -2.472299      1.610410      2.084493
  H      -3.337093      3.312519     -0.314457
  H      -3.582148      3.710065      1.393906
  H      -1.943344      3.625659      0.736344
  H      -4.247335      0.024650      1.368904
  H      -4.688372      1.085187      0.017773
  H      -4.948606      1.611870      1.687797
  H       0.711060      0.899934      1.459645
  H       2.961566      1.828618      1.522355
  H       5.357968      0.694764      2.115764
  H       5.894789     -0.527041      0.930839
  H       6.969755      0.811135      1.383697
  H       3.767776     -1.087164     -3.146737
  H       4.560679      0.478091     -2.970042
  H       5.104676     -0.930595     -2.007282
  H       1.669994     -1.225457     -2.154849
41
Coordinates from ORCA-job opt E -1527.694345229435
  C      -3.476671     -3.653175     -0.834719
  C      -2.449808     -2.936913      0.015630
  O      -2.581196     -1.527549     -0.199289
  P      -1.499340     -0.545390      0.490336
  O      -1.259164     -0.838655      1.934252
  N      -1.994796      0.977835      0.124092
  C      -2.873057      1.721544      1.044018
  C      -2.837605      3.199130      0.659751
  C      -4.305344      1.184103      1.057213
  O      -0.220647     -0.826247     -0.460062
  C       1.012602     -0.238798     -0.328573
  C       1.358340      0.611581      0.718093
  C       2.638864      1.159654      0.750343
  C       3.583017      0.855900     -0.236685
  S       5.209913      1.588199     -0.120359
  C       5.940367      0.509421      1.139945
  C       3.235047     -0.002041     -1.296023
  C       4.210367     -0.359396     -2.387610
  C       1.942649     -0.538785     -1.324479
  H      -3.406562     -4.739971     -0.688775
  H      -4.494098     -3.327109     -0.570639
  H      -3.321947     -3.429764     -1.901158
  H      -1.432633     -3.261954     -0.258492
  H      -2.611263     -3.157057      1.082467
  H      -2.303474      1.057256     -0.847561
  H      -2.451192      1.627755      2.056315
  H      -3.249828      3.357186     -0.349834
  H      -3.431995      3.797530      1.365663
  H      -1.806853      3.584513      0.672110
  H      -4.340661      0.143998      1.414536
  H      -4.748560      1.215210      0.049112
  H      -4.939570      1.786957      1.724679
  H       0.655848      0.858492      1.516200
  H       2.900695      1.834648      1.568819
  H       5.397809      0.596129      2.091523
  H       5.931974     -0.536791      0.804072
  H       6.982137      0.820728      1.299029
  H       3.757417     -1.047301     -3.114676
  H       4.532408      0.539559     -2.933155
  H       5.099855     -0.852231     -1.967506
  H       1.646954     -1.208202     -2.135597
41
Coordinates from ORCA-job opt E -1527.696370796791
  C      -3.443193     -3.708654     -0.828223
  C      -2.430685     -2.996460      0.037484
  O      -2.575407     -1.578257     -0.164892
  P      -1.542285     -0.564095      0.539800
  O      -1.321788     -0.791522      1.991412
  N      -2.019401      0.955301      0.123365
  C      -2.901285      1.744299      1.005370
  C      -2.781115      3.215774      0.625950
  C      -4.346193      1.250321      0.982370
  O      -0.239706     -0.843044     -0.392000
  C       0.989888     -0.241577     -0.258986
  C       1.325689      0.591982      0.807469
  C       2.598769      1.153529      0.833829
  C       3.536537      0.886364     -0.166501
  S       5.153464      1.635958     -0.059015
  C       5.997769      0.440297      1.010834
  C       3.196103      0.041453     -1.241911
  C       4.174405     -0.281482     -2.342258
  C       1.913599     -0.508892     -1.268262
  H      -3.356797     -4.796519     -0.688287
  H      -4.467207     -3.402706     -0.562048
  H      -3.277354     -3.478671     -1.892328
  H      -1.403651     -3.301160     -0.228997
  H      -2.589344     -3.222361      1.105055
  H      -2.239292      1.052257     -0.869933
  H      -2.501588      1.617492      2.025137
  H      -3.157904      3.386847     -0.397222
  H      -3.369823      3.841794      1.313701
  H      -1.731779      3.546223      0.665848
  H      -4.418080      0.205043      1.324209
  H      -4.759711      1.306956     -0.039093
  H      -4.976531      1.867091      1.641962
  H       0.622193      0.799153      1.616352
  H       2.867030      1.815673      1.662280
  H       5.514879      0.385568      1.997641
  H       6.011965     -0.556437      0.545709
  H       7.032885      0.790062      1.138124
  H       3.729477     -0.973871     -3.070822
  H       4.484535      0.629393     -2.877247
  H       5.085230     -0.746567     -1.933298
  H       1.615702     -1.166552     -2.089573
41
Coordinates from ORCA-job opt E -1527.696939867787
  C      -3.440451     -3.735174     -0.814337
  C      -2.430231     -3.029035      0.056413
  O      -2.573759     -1.608582     -0.142087
  P      -1.567545     -0.584458      0.574395
  O      -1.378939     -0.777520      2.032911
  N      -2.027111      0.931181      0.127916
  C      -2.915101      1.745485      0.978478
  C      -2.728867      3.213254      0.618287
  C      -4.371250      1.296549      0.893837
  O      -0.244645     -0.872897     -0.335291
  C       0.977179     -0.259146     -0.199009
  C       1.303194      0.565918      0.877409
  C       2.570023      1.143297      0.903566
  C       3.506905      0.904057     -0.103948
  S       5.107225      1.687296     -0.001780
  C       6.047163      0.419204      0.890520
  C       3.174800      0.065122     -1.189282
  C       4.150080     -0.226095     -2.299725
  C       1.900171     -0.503330     -1.214943
  H      -3.351878     -4.822812     -0.675727
  H      -4.464596     -3.433702     -0.547744
  H      -3.268683     -3.505052     -1.876403
  H      -1.401247     -3.326302     -0.206384
  H      -2.587942     -3.252853      1.123745
  H      -2.176967      1.045997     -0.874635
  H      -2.556499      1.589090      2.009312
  H      -3.055231      3.402250     -0.418323
  H      -3.327087      3.853139      1.283909
  H      -1.671758      3.504494      0.705981
  H      -4.483058      0.248341      1.211656
  H      -4.742649      1.382914     -0.140975
  H      -5.007661      1.919865      1.540750
  H       0.596484      0.746504      1.688689
  H       2.838057      1.797986      1.737453
  H       5.616576      0.238638      1.885534
  H       6.080055     -0.519657      0.319397
  H       7.069855      0.806108      1.004797
  H       3.713410     -0.921992     -3.028989
  H       4.440483      0.695603     -2.826441
  H       5.077016     -0.669139     -1.904261
  H       1.604481     -1.154545     -2.041667
41
Coordinates from ORCA-job opt E -1527.697205880840
  C      -3.450539     -3.758690     -0.776274
  C      -2.430686     -3.051575      0.081591
  O      -2.571723     -1.632133     -0.122454
  P      -1.578422     -0.601556      0.593859
  O      -1.413444     -0.773831      2.057908
  N      -2.029180      0.908118      0.126980
  C      -2.921446      1.738622      0.953010
  C      -2.677582      3.204657      0.621272
  C      -4.385591      1.335831      0.799721
  O      -0.242651     -0.901790     -0.299395
  C       0.972530     -0.279157     -0.161880
  C       1.300390      0.527500      0.927409
  C       2.563975      1.113747      0.955621
  C       3.494685      0.904140     -0.064276
  S       5.083984      1.708868      0.040665
  C       6.074037      0.413835      0.835795
  C       3.158614      0.086724     -1.166167
  C       4.117610     -0.160591     -2.300105
  C       1.889446     -0.495248     -1.190567
  H      -3.362736     -4.845368     -0.632391
  H      -4.470988     -3.454567     -0.501706
  H      -3.286426     -3.535674     -1.840333
  H      -1.404516     -3.348530     -0.188595
  H      -2.578344     -3.267154      1.151355
  H      -2.128383      1.037230     -0.878791
  H      -2.610971      1.555240      1.994356
  H      -2.946971      3.414935     -0.426826
  H      -3.290268      3.853054      1.264444
  H      -1.618665      3.463820      0.764768
  H      -4.537861      0.284569      1.086974
  H      -4.711956      1.455761     -0.246145
  H      -5.030286      1.961747      1.435099
  H       0.596691      0.681666      1.746058
  H       2.838004      1.749951      1.801158
  H       5.671055      0.168205      1.827590
  H       6.118041     -0.490705      0.213565
  H       7.087927      0.822331      0.947995
  H       3.677615     -0.841543     -3.040583
  H       4.387254      0.779692     -2.803949
  H       5.057760     -0.601223     -1.936278
  H       1.590017     -1.130906     -2.027473
41
Coordinates from ORCA-job opt E -1527.697434161835
  C      -3.511778     -3.801351     -0.720565
  C      -2.461010     -3.107025      0.109620
  O      -2.578267     -1.688016     -0.102432
  P      -1.593286     -0.662939      0.621565
  O      -1.475820     -0.818773      2.093518
  N      -2.009574      0.844315      0.133211
  C      -2.897419      1.706798      0.923085
  C      -2.515694      3.163111      0.688676
  C      -4.368344      1.432909      0.618025
  O      -0.236444     -0.992011     -0.237508
  C       0.962784     -0.342601     -0.109521
  C       1.289986      0.453609      0.986670
  C       2.537795      1.074999      1.003342
  C       3.455148      0.910877     -0.037452
  S       5.011628      1.778782      0.051670
  C       6.085155      0.512917      0.784204
  C       3.119803      0.103923     -1.148232
  C       4.052589     -0.084337     -2.313770
  C       1.867592     -0.515672     -1.158679
  H      -3.441366     -4.887819     -0.569221
  H      -4.519800     -3.476291     -0.427773
  H      -3.364670     -3.590977     -1.788958
  H      -1.446119     -3.420678     -0.179410
  H      -2.590474     -3.309401      1.183572
  H      -2.019486      1.006826     -0.870835
  H      -2.700278      1.452232      1.975971
  H      -2.656087      3.437022     -0.369034
  H      -3.144608      3.829576      1.296091
  H      -1.462543      3.333508      0.953759
  H      -4.619809      0.380745      0.816078
  H      -4.589459      1.643399     -0.440232
  H      -5.021531      2.064868      1.237702
  H       0.592436      0.571798      1.816104
  H       2.814061      1.702290      1.854083
  H       5.716845      0.219819      1.775670
  H       6.167048     -0.371497      0.138865
  H       7.076326      0.974499      0.886991
  H       3.612138     -0.756164     -3.061464
  H       4.279218      0.878598     -2.794807
  H       5.015492     -0.508613     -1.994642
  H       1.567821     -1.143254     -2.000934
41
Coordinates from ORCA-job opt E -1527.697591548892
  C      -3.513660     -3.821130     -0.689434
  C      -2.452513     -3.112880      0.116268
  O      -2.578148     -1.697340     -0.110452
  P      -1.594332     -0.660657      0.601978
  O      -1.471561     -0.812139      2.074971
  N      -2.023692      0.839481      0.106029
  C      -2.893005      1.712899      0.904397
  C      -2.511962      3.166652      0.650190
  C      -4.370751      1.441911      0.629094
  O      -0.237136     -0.986774     -0.255144
  C       0.961175     -0.336525     -0.117360
  C       1.291689      0.431763      0.997697
  C       2.539092      1.052244      1.028714
  C       3.454292      0.913090     -0.017899
  S       5.014158      1.772305      0.091552
  C       6.082321      0.481155      0.785842
  C       3.117833      0.132637     -1.145764
  C       4.055614     -0.037140     -2.310551
  C       1.865060     -0.485054     -1.170998
  H      -3.438034     -4.905809     -0.527508
  H      -4.518286     -3.494727     -0.385192
  H      -3.385086     -3.621371     -1.762673
  H      -1.441470     -3.428590     -0.185325
  H      -2.566211     -3.305056      1.194227
  H      -2.055306      0.991534     -0.899733
  H      -2.678152      1.469827      1.956546
  H      -2.677248      3.433181     -0.406076
  H      -3.123146      3.840286      1.268172
  H      -1.451773      3.336486      0.887356
  H      -4.622220      0.392050      0.840956
  H      -4.611888      1.644951     -0.426598
  H      -5.009955      2.081364      1.255914
  H       0.596143      0.530609      1.831890
  H       2.815467      1.658963      1.894465
  H       5.713821      0.160640      1.769225
  H       6.157675     -0.384901      0.114661
  H       7.077300      0.932087      0.901187
  H       3.615242     -0.690088     -3.075272
  H       4.288875      0.934661     -2.770349
  H       5.013615     -0.476103     -1.994996
  H       1.566162     -1.094487     -2.027004
41
Coordinates from ORCA-job opt E -1527.697748371705
  C      -3.553348     -3.859070     -0.629377
  C      -2.456288     -3.143739      0.121358
  O      -2.582125     -1.732119     -0.124928
  P      -1.599478     -0.685827      0.580425
  O      -1.487495     -0.829757      2.056538
  N      -2.027970      0.806029      0.066473
  C      -2.861194      1.712144      0.866824
  C      -2.438545      3.153507      0.604912
  C      -4.349061      1.485472      0.604170
  O      -0.234941     -1.021959     -0.257417
  C       0.957304     -0.359549     -0.110575
  C       1.290229      0.369891      1.029904
  C       2.528254      1.006219      1.073974
  C       3.434986      0.916892      0.014218
  S       4.985683      1.789889      0.141415
  C       6.071100      0.490320      0.790106
  C       3.098095      0.175069     -1.137811
  C       4.031977      0.057093     -2.313098
  C       1.852478     -0.455542     -1.177147
  H      -3.479688     -4.941846     -0.453177
  H      -4.542999     -3.518249     -0.291416
  H      -3.468504     -3.676448     -1.710651
  H      -1.460391     -3.475034     -0.214531
  H      -2.531021     -3.319538      1.206080
  H      -2.067930      0.948821     -0.940932
  H      -2.647060      1.469930      1.919429
  H      -2.613804      3.423963     -0.449333
  H      -3.017531      3.846572      1.232964
  H      -1.369211      3.292337      0.822539
  H      -4.629024      0.442686      0.818263
  H      -4.593928      1.697048     -0.449566
  H      -4.964134      2.143305      1.236727
  H       0.601895      0.427778      1.874619
  H       2.802646      1.585198      1.959484
  H       5.706074      0.127786      1.760866
  H       6.158579     -0.350122      0.087623
  H       7.061421      0.947295      0.924348
  H       3.590242     -0.563526     -3.104168
  H       4.258961      1.048682     -2.732550
  H       4.991080     -0.395608     -2.019718
  H       1.554666     -1.035992     -2.053860
41
Coordinates from ORCA-job opt E -1527.697862630606
  C      -3.606188     -3.891630     -0.579505
  C      -2.468585     -3.184679      0.117823
  O      -2.584342     -1.774504     -0.139138
  P      -1.607476     -0.727123      0.576664
  O      -1.526698     -0.864539      2.056227
  N      -2.018005      0.760425      0.042416
  C      -2.821033      1.702323      0.832389
  C      -2.331470      3.124795      0.584578
  C      -4.313205      1.540845      0.546776
  O      -0.228148     -1.080431     -0.227090
  C       0.952706     -0.394075     -0.083052
  C       1.287622      0.312067      1.071814
  C       2.512156      0.973036      1.115700
  C       3.404606      0.929474      0.040777
  S       4.940706      1.827527      0.169089
  C       6.055100      0.535224      0.780686
  C       3.066481      0.211039     -1.124872
  C       3.988507      0.141327     -2.313994
  C       1.833254     -0.443101     -1.164155
  H      -3.541653     -4.973887     -0.395941
  H      -4.575663     -3.531299     -0.204209
  H      -3.565411     -3.719734     -1.665453
  H      -1.492442     -3.536305     -0.254642
  H      -2.502646     -3.349991      1.206586
  H      -2.039405      0.900966     -0.966064
  H      -2.634365      1.448356      1.887572
  H      -2.484308      3.409175     -0.469848
  H      -2.885428      3.838738      1.212127
  H      -1.259001      3.215630      0.812964
  H      -4.638528      0.508496      0.748255
  H      -4.533689      1.771153     -0.508732
  H      -4.910070      2.219082      1.175584
  H       0.610589      0.332109      1.927695
  H       2.786148      1.535300      2.012216
  H       5.700891      0.139294      1.742771
  H       6.157962     -0.284805      0.055911
  H       7.037083      1.007538      0.924691
  H       3.542198     -0.454236     -3.121956
  H       4.203116      1.148776     -2.701023
  H       4.953195     -0.316097     -2.046337
  H       1.535438     -1.006258     -2.052293
41
Coordinates from ORCA-job opt E -1527.698020075026
  C      -3.683233     -3.932552     -0.527311
  C      -2.494095     -3.249491      0.105591
  O      -2.585906     -1.839767     -0.160655
  P      -1.621195     -0.797921      0.583363
  O      -1.597469     -0.923855      2.066170
  N      -1.991596      0.687098      0.019746
  C      -2.747885      1.682564      0.789853
  C      -2.143941      3.065546      0.575964
  C      -4.236894      1.632207      0.453579
  O      -0.218080     -1.181360     -0.161505
  C       0.942417     -0.455559     -0.032601
  C       1.278232      0.233314      1.132300
  C       2.478787      0.937214      1.164913
  C       3.346316      0.951241      0.068739
  S       4.853743      1.898471      0.183441
  C       6.016068      0.637561      0.769422
  C       3.006564      0.250259     -1.107023
  C       3.902768      0.244194     -2.318141
  C       1.796075     -0.445798     -1.134909
  H      -3.637046     -5.014912     -0.338576
  H      -4.622474     -3.543635     -0.106125
  H      -3.694737     -3.768907     -1.615352
  H      -1.547345     -3.630835     -0.311255
  H      -2.477772     -3.406016      1.196252
  H      -1.971757      0.825539     -0.988905
  H      -2.616427      1.406524      1.847887
  H      -2.241431      3.372218     -0.478893
  H      -2.661619      3.812449      1.196219
  H      -1.075383      3.071970      0.838390
  H      -4.639283      0.622695      0.630020
  H      -4.405005      1.889867     -0.605322
  H      -4.805433      2.344039      1.071455
  H       0.618574      0.208075      2.001895
  H       2.752391      1.488292      2.068495
  H       5.682363      0.216957      1.728410
  H       6.142184     -0.168285      0.032224
  H       6.982727      1.140549      0.913705
  H       3.445348     -0.322371     -3.140743
  H       4.096713      1.269594     -2.666480
  H       4.878232     -0.212199     -2.090028
  H       1.496505     -0.994976     -2.031204
41
Coordinates from ORCA-job opt E -1527.698027043150
  C      -3.751486     -3.976315     -0.482491
  C      -2.518467     -3.321574      0.093713
  O      -2.583200     -1.911783     -0.177660
  P      -1.642998     -0.877176      0.607246
  O      -1.696982     -0.984221      2.090369
  N      -1.958812      0.605377      0.009859
  C      -2.672996      1.655066      0.746419
  C      -1.923239      2.976029      0.620036
  C      -4.127919      1.754086      0.295428
  O      -0.209835     -1.296304     -0.058757
  C       0.924371     -0.525485      0.044179
  C       1.260747      0.157592      1.211736
  C       2.430605      0.912601      1.223700
  C       3.265586      0.981650      0.104321
  S       4.734027      1.991235      0.192475
  C       5.965881      0.767642      0.711258
  C       2.924211      0.285510     -1.074480
  C       3.786732      0.335675     -2.308521
  C       1.743911     -0.461877     -1.081107
  H      -3.722992     -5.059053     -0.292678
  H      -4.660629     -3.563515     -0.020603
  H      -3.808050     -3.815190     -1.569286
  H      -1.600596     -3.727985     -0.361713
  H      -2.456521     -3.473976      1.183248
  H      -1.862638      0.745047     -0.993572
  H      -2.652047      1.344191      1.802621
  H      -1.898522      3.310793     -0.430222
  H      -2.417543      3.758645      1.214821
  H      -0.886350      2.871397      0.972764
  H      -4.633007      0.782762      0.408745
  H      -4.186858      2.050963     -0.764693
  H      -4.675438      2.501919      0.888952
  H       0.620174      0.092882      2.093622
  H       2.705116      1.461936      2.127954
  H       5.680676      0.313353      1.670181
  H       6.101267     -0.015076     -0.048675
  H       6.914518      1.308300      0.836629
  H       3.314680     -0.209584     -3.137023
  H       3.958374      1.374648     -2.625795
  H       4.774664     -0.112916     -2.121391
  H       1.441587     -1.007269     -1.978603
41
Coordinates from ORCA-job opt E -1527.698122782204
  C      -3.711858     -3.954770     -0.508100
  C      -2.501838     -3.284250      0.097154
  O      -2.584327     -1.873224     -0.165186
  P      -1.630834     -0.837552      0.600188
  O      -1.639585     -0.952247      2.082972
  N      -1.977119      0.648328      0.021923
  C      -2.716393      1.669103      0.775176
  C      -2.035623      3.022881      0.610092
  C      -4.188614      1.696513      0.373253
  O      -0.214131     -1.238979     -0.111614
  C       0.933316     -0.490996      0.001559
  C       1.264518      0.201199      1.165077
  C       2.450219      0.931338      1.186395
  C       3.305574      0.967209      0.081223
  S       4.794789      1.945028      0.182510
  C       5.988959      0.701316      0.741911
  C       2.968136      0.263539     -1.094729
  C       3.849241      0.280106     -2.316086
  C       1.772622     -0.459385     -1.110885
  H      -3.668663     -5.038027     -0.324462
  H      -4.637225     -3.561389     -0.062258
  H      -3.747986     -3.787851     -1.594701
  H      -1.568207     -3.671255     -0.342362
  H      -2.458662     -3.442269      1.186583
  H      -1.917330      0.787813     -0.984422
  H      -2.645133      1.369451      1.832423
  H      -2.058228      3.344410     -0.444181
  H      -2.549120      3.789198      1.209632
  H      -0.985130      2.972237      0.932784
  H      -4.647873      0.707009      0.518159
  H      -4.296168      1.973162     -0.688366
  H      -4.747221      2.429655      0.974556
  H       0.609562      0.162808      2.037506
  H       2.722428      1.485618      2.088235
  H       5.682127      0.275606      1.707033
  H       6.111417     -0.100801      0.000669
  H       6.949479      1.220621      0.865894
  H       3.383443     -0.275701     -3.140886
  H       4.038746      1.310593     -2.650513
  H       4.829199     -0.175002     -2.105645
  H       1.473493     -1.011042     -2.005510
41
Coordinates from ORCA-job opt E -1527.698136148903
  C      -3.697967     -3.951222     -0.514635
  C      -2.495600     -3.275129      0.099108
  O      -2.584215     -1.863780     -0.160733
  P      -1.629219     -0.827474      0.600551
  O      -1.627504     -0.942310      2.083096
  N      -1.984411      0.658611      0.026072
  C      -2.729271      1.672681      0.782205
  C      -2.062376      3.032948      0.611712
  C      -4.203216      1.686599      0.385994
  O      -0.215789     -1.224372     -0.121600
  C       0.934932     -0.482272     -0.006691
  C       1.267321      0.210873      1.155992
  C       2.457254      0.934340      1.178418
  C       3.315574      0.962770      0.075471
  S       4.809791      1.933039      0.178243
  C       5.994538      0.684642      0.748308
  C       2.977188      0.257990     -1.099613
  C       3.860048      0.266916     -2.319508
  C       1.777734     -0.458583     -1.116921
  H      -3.649035     -5.034553     -0.333076
  H      -4.628610     -3.565014     -0.073727
  H      -3.727933     -3.782437     -1.601079
  H      -1.556983     -3.655206     -0.335606
  H      -2.457563     -3.434674      1.188464
  H      -1.933333      0.796338     -0.980962
  H      -2.650870      1.374415      1.839220
  H      -2.087133      3.349868     -0.443761
  H      -2.583530      3.797132      1.207342
  H      -1.011732      2.993843      0.935437
  H      -4.654919      0.694316      0.535638
  H      -4.317235      1.958857     -0.676036
  H      -4.764779      2.417281      0.987479
  H       0.610448      0.178145      2.027066
  H       2.730883      1.489090      2.079521
  H       5.683782      0.268968      1.716489
  H       6.110802     -0.123861      0.013211
  H       6.958687      1.197961      0.868611
  H       3.391396     -0.286038     -3.144498
  H       4.058894      1.295528     -2.654274
  H       4.836321     -0.195226     -2.107211
  H       1.477628     -1.011000     -2.010718
41
Coordinates from ORCA-job opt E -1527.698141540181
  C      -3.694406     -3.955773     -0.513854
  C      -2.493818     -3.277329      0.100468
  O      -2.584870     -1.865949     -0.159460
  P      -1.631037     -0.828923      0.601411
  O      -1.628162     -0.941259      2.084059
  N      -1.988449      0.656338      0.025534
  C      -2.729288      1.672741      0.781655
  C      -2.055564      3.030134      0.613921
  C      -4.202193      1.694685      0.381701
  O      -0.216990     -1.225493     -0.120781
  C       0.933406     -0.483313     -0.005632
  C       1.265773      0.209354      1.157363
  C       2.455226      0.933664      1.179880
  C       3.313068      0.963506      0.076622
  S       4.806733      1.934772      0.179641
  C       5.992595      0.685546      0.746426
  C       2.974686      0.259560     -1.098912
  C       3.856733      0.269412     -2.319261
  C       1.775741     -0.458037     -1.116289
  H      -3.642893     -5.039030     -0.332643
  H      -4.626329     -3.572148     -0.073499
  H      -3.723851     -3.786905     -1.600281
  H      -1.554139     -3.655163     -0.333786
  H      -2.455760     -3.436576      1.189849
  H      -1.940407      0.791100     -0.982020
  H      -2.654788      1.372505      1.838316
  H      -2.072146      3.345906     -0.441989
  H      -2.576446      3.797839      1.205232
  H      -1.007033      2.986349      0.943960
  H      -4.660160      0.704977      0.529355
  H      -4.312158      1.968126     -0.680426
  H      -4.761063      2.428023      0.982443
  H       0.609113      0.175523      2.028540
  H       2.729097      1.488068      2.081105
  H       5.683941      0.269967      1.715286
  H       6.105835     -0.122590      0.010549
  H       6.957317      1.198338      0.864097
  H       3.384073     -0.275918     -3.146983
  H       4.063174      1.298348     -2.648213
  H       4.830040     -0.200509     -2.110037
  H       1.475399     -1.009870     -2.010343
41
Coordinates from ORCA-job opt E -1527.698145375020
  C      -3.689121     -3.963033     -0.515171
  C      -2.491453     -3.281508      0.101276
  O      -2.586175     -1.870035     -0.158285
  P      -1.634310     -0.831576      0.602418
  O      -1.630927     -0.941396      2.085295
  N      -1.994209      0.652281      0.024233
  C      -2.727456      1.673231      0.781030
  C      -2.043632      3.025967      0.615635
  C      -4.199770      1.706980      0.379352
  O      -0.219101     -1.227707     -0.118582
  C       0.930160     -0.484001     -0.003698
  C       1.261976      0.209558      1.158994
  C       2.450482      0.935305      1.181277
  C       3.308160      0.965815      0.077865
  S       4.800976      1.938486      0.180716
  C       5.988743      0.688771      0.743153
  C       2.970542      0.261208     -1.097343
  C       3.852839      0.270500     -2.317503
  C       1.772427     -0.457838     -1.114463
  H      -3.634503     -5.046269     -0.334692
  H      -4.623033     -3.582667     -0.076199
  H      -3.717224     -3.793574     -1.601568
  H      -1.550093     -3.656432     -0.331847
  H      -2.454502     -3.440942      1.190669
  H      -1.952063      0.782626     -0.984193
  H      -2.656410      1.371036      1.837333
  H      -2.053763      3.340956     -0.440614
  H      -2.560752      3.798302      1.204229
  H      -0.996479      2.974709      0.949128
  H      -4.665893      0.720763      0.525011
  H      -4.306418      1.982555     -0.682579
  H      -4.753594      2.443827      0.980492
  H       0.605441      0.175078      2.030258
  H       2.723925      1.490488      2.082151
  H       5.682027      0.271704      1.711994
  H       6.099929     -0.117979      0.005452
  H       6.953694      1.201454      0.859361
  H       3.374810     -0.263826     -3.149314
  H       4.071431      1.299344     -2.638565
  H       4.820821     -0.211934     -2.111377
  H       1.472498     -1.010229     -2.008326
41
Coordinates from ORCA-job opt E -1527.698152320179
  C      -3.683744     -3.968134     -0.519873
  C      -2.489889     -3.284286      0.101430
  O      -2.587704     -1.872635     -0.156799
  P      -1.637080     -0.832977      0.603655
  O      -1.633305     -0.941533      2.086700
  N      -1.998536      0.649795      0.023820
  C      -2.725748      1.674262      0.781669
  C      -2.035510      3.023786      0.616584
  C      -4.198261      1.715454      0.381353
  O      -0.221230     -1.229002     -0.116454
  C       0.927277     -0.484186     -0.002057
  C       1.257837      0.212192      1.159366
  C       2.445635      0.938953      1.181027
  C       3.304065      0.967900      0.078089
  S       4.796145      1.941674      0.180315
  C       5.985815      0.692271      0.739561
  C       2.967821      0.260599     -1.095827
  C       3.851518      0.267194     -2.315036
  C       1.770361     -0.459476     -1.112250
  H      -3.627006     -5.051461     -0.340510
  H      -4.620139     -3.590576     -0.083704
  H      -3.708618     -3.797415     -1.606178
  H      -1.546242     -3.656408     -0.329166
  H      -2.456194     -3.444830      1.190774
  H      -1.961774      0.777019     -0.985262
  H      -2.655377      1.371237      1.837805
  H      -2.044838      3.338808     -0.439726
  H      -2.548364      3.798679      1.205551
  H      -0.988211      2.967506      0.948899
  H      -4.668891      0.731285      0.526506
  H      -4.304496      1.992509     -0.680273
  H      -4.748107      2.454411      0.983564
  H       0.600818      0.178919      2.030356
  H       2.718012      1.496260      2.080921
  H       5.680249      0.273231      1.707933
  H       6.096984     -0.113068      0.000285
  H       6.950449      1.205563      0.855771
  H       3.369806     -0.259244     -3.149781
  H       4.080533      1.295284     -2.630979
  H       4.814520     -0.225726     -2.109807
  H       1.471418     -1.013835     -2.005248
41
Coordinates from ORCA-job opt E -1527.698154834688
  C      -3.677805     -3.971586     -0.528017
  C      -2.489237     -3.285945      0.101536
  O      -2.589529     -1.874078     -0.154565
  P      -1.639621     -0.833483      0.605598
  O      -1.635629     -0.941385      2.088745
  N      -2.001947      0.648426      0.024548
  C      -2.724440      1.675545      0.783604
  C      -2.030082      3.022837      0.617970
  C      -4.197464      1.721373      0.385865
  O      -0.223399     -1.229769     -0.113746
  C       0.924554     -0.484042     -0.000302
  C       1.253209      0.217013      1.158893
  C       2.440512      0.944495      1.179433
  C       3.300450      0.969870      0.077526
  S       4.791700      1.944829      0.178565
  C       5.983759      0.696439      0.734700
  C       2.966178      0.257837     -1.094132
  C       3.851967      0.259919     -2.311872
  C       1.769259     -0.463051     -1.109322
  H      -3.619772     -5.055080     -0.350020
  H      -4.617565     -3.596638     -0.096787
  H      -3.696722     -3.799086     -1.614177
  H      -1.542314     -3.655094     -0.324452
  H      -2.461532     -3.448409      1.190778
  H      -1.969436      0.773793     -0.984941
  H      -2.653430      1.372151      1.839632
  H      -2.041569      3.338731     -0.438120
  H      -2.538804      3.798770      1.209163
  H      -0.981910      2.963044      0.946932
  H      -4.670317      0.738307      0.531225
  H      -4.304632      1.999524     -0.675414
  H      -4.744285      2.461576      0.989296
  H       0.595254      0.186520      2.029314
  H       2.711345      1.505193      2.077689
  H       5.679526      0.275183      1.702550
  H       6.096059     -0.107565     -0.005897
  H       6.947652      1.211076      0.851239
  H       3.367532     -0.260735     -3.148703
  H       4.090581      1.286727     -2.624615
  H       4.810066     -0.242386     -2.106002
  H       1.471836     -1.020846     -2.000714
41
Coordinates from ORCA-job opt E -1527.698157113730
  C      -3.673484     -3.973328     -0.533213
  C      -2.489073     -3.286350      0.102795
  O      -2.590791     -1.874495     -0.152107
  P      -1.641136     -0.833026      0.607332
  O      -1.637246     -0.940004      2.090537
  N      -2.003779      0.648147      0.025056
  C      -2.724513      1.676625      0.784232
  C      -2.028518      3.022954      0.618057
  C      -4.197671      1.723975      0.387368
  O      -0.224744     -1.229998     -0.111341
  C       0.923107     -0.484062      0.001505
  C       1.251055      0.219004      1.159689
  C       2.438343      0.946540      1.179640
  C       3.298882      0.970258      0.078157
  S       4.789681      1.945787      0.178702
  C       5.983826      0.697579      0.730300
  C       2.965199      0.256227     -1.092557
  C       3.851651      0.256568     -2.309799
  C       1.768464     -0.464922     -1.107035
  H      -3.614853     -5.056860     -0.355671
  H      -4.615802     -3.599889     -0.106257
  H      -3.687344     -3.799980     -1.619305
  H      -1.539560     -3.653507     -0.319136
  H      -2.466338     -3.450017      1.191979
  H      -1.971808      0.773238     -0.984471
  H      -2.653345      1.373406      1.840308
  H      -2.041643      3.339659     -0.437774
  H      -2.535352      3.798888      1.210878
  H      -0.979870      2.961712      0.945173
  H      -4.671053      0.741253      0.533157
  H      -4.305140      2.002245     -0.673855
  H      -4.743477      2.464849      0.990884
  H       0.592873      0.189699      2.029984
  H       2.708710      1.508463      2.077268
  H       5.681396      0.273663      1.697555
  H       6.096810     -0.104743     -0.012016
  H       6.947127      1.213300      0.846985
  H       3.365232     -0.260036     -3.147994
  H       4.095725      1.282837     -2.619911
  H       4.806853     -0.251475     -2.104388
  H       1.471610     -1.024183     -1.997707
41
Coordinates from ORCA-job opt E -1527.698155719553
  C      -3.669443     -3.973772     -0.538973
  C      -2.489479     -3.285788      0.104219
  O      -2.591862     -1.873962     -0.149707
  P      -1.642051     -0.832158      0.609230
  O      -1.638226     -0.938512      2.092418
  N      -2.004696      0.648680      0.026325
  C      -2.725097      1.677579      0.785465
  C      -2.029335      3.023858      0.618177
  C      -4.198466      1.724377      0.389456
  O      -0.225699     -1.229783     -0.109156
  C       0.922258     -0.483895      0.002974
  C       1.249590      0.221161      1.160107
  C       2.437037      0.948539      1.179376
  C       3.298157      0.970337      0.078334
  S       4.788780      1.946111      0.178210
  C       5.984403      0.697970      0.726316
  C       2.964939      0.254309     -1.091389
  C       3.852031      0.252545     -2.308127
  C       1.768180     -0.466808     -1.105154
  H      -3.610640     -5.057326     -0.361694
  H      -4.614509     -3.601582     -0.117037
  H      -3.677322     -3.799737     -1.624999
  H      -1.537177     -3.651278     -0.312849
  H      -2.472499     -3.450608      1.193342
  H      -1.971717      0.774374     -0.983067
  H      -2.653230      1.374891      1.841632
  H      -2.044131      3.340979     -0.437473
  H      -2.535505      3.799376      1.212127
  H      -0.980307      2.962652      0.944017
  H      -4.671410      0.741646      0.536453
  H      -4.306629      2.001776     -0.671912
  H      -4.743995      2.465773      0.992572
  H       0.591058      0.193454      2.030164
  H       2.707010      1.511779      2.076290
  H       5.683858      0.272588      1.693512
  H       6.097420     -0.103484     -0.016925
  H       6.947397      1.214426      0.842325
  H       3.364399     -0.261938     -3.146913
  H       4.099917      1.278187     -2.617163
  H       4.805210     -0.259202     -2.102450
  H       1.471781     -1.027536     -1.995050
