27
Coordinates from ORCA-job opt E -876.482770488421
  C           2.91013653872172      0.52472401266387      1.70408968980308
  C           2.36801835787229     -0.23489269384530      0.51834769022565
  O           1.77482529501092      0.71015758531983     -0.40257325887326
  P           0.60485039148401      0.24992311706386     -1.38883192000258
  O           0.91906198944400     -0.74940544211903     -2.43897157846197
  C           0.34209093767846      1.88495243665137     -2.13143967936809
  N           0.13159548919601      2.89478020369983     -2.65385080732058
  N          -0.72417043286493     -0.09392761187155     -0.49584199743016
  C          -1.11178072961218      0.70977231281662      0.66920311831065
  C          -2.29638893603245      1.62953816764906      0.40381040756152
  C          -1.54512786839250     -1.26639876354458     -0.82645187747482
  C          -1.03798951270126     -2.54279136036857     -0.17427165802688
  H           2.10177281083197      1.04394801294418      2.23937851945503
  H           3.65679688671206      1.26609846303945      1.38487537897654
  H           3.39288471889792     -0.17651204038047      2.39995932770803
  H           3.16209247325869     -0.77469167675583     -0.01872390745365
  H           1.60413098672796     -0.96578940854323      0.82986380526490
  H          -1.33333924275943      0.01904342628298      1.49930976395464
  H          -0.24050154665591      1.30069513509564      0.98838626788137
  H          -3.18808857326909      1.06243734999085      0.09687284557224
  H          -2.06382339333331      2.35839344983665     -0.38701655299437
  H          -2.55151550383292      2.18681246667186      1.31724782429479
  H          -2.57438567801419     -1.04585115859442     -0.50669032490995
  H          -1.57803700950364     -1.38296679375066     -1.91887794517974
  H          -0.96560015069248     -2.42937325634455      0.91820121803727
  H          -0.04067765024626     -2.79688449151420     -0.56307755041143
  H          -1.71683063792545     -3.38179144209367     -0.38759254913828
