27
Coordinates from ORCA-job opt E -2222.048421212981
  C       3.379325      0.985912      1.592197
  C       2.723420      0.164162      0.502294
  O       1.725621      0.954317     -0.123204
  P       0.744313      0.192757     -1.158635
  O       1.497156     -0.666207     -2.134149
  C       0.063834      1.550877     -2.194380
  N      -0.406928      2.410044     -2.824974
  N      -0.459530     -0.532154     -0.289313
  C      -1.014035      0.149543      0.881751
  C      -2.023480      1.249726      0.582752
  C      -1.443308     -1.289345     -1.071679
  C      -2.240408     -2.316658     -0.276316
  H       2.638426      1.304105      2.333143
  H       3.823510      1.895778      1.175177
  H       4.160319      0.411416      2.097986
  H       3.466076     -0.133610     -0.244342
  H       2.269964     -0.735343      0.930934
  H      -1.468634     -0.579842      1.561507
  H      -0.195672      0.583939      1.467115
  H      -2.895468      0.870539      0.042101
  H      -1.575755      2.059475      0.001409
  H      -2.384065      1.683943      1.521452
  H      -2.126872     -0.610552     -1.593966
  H      -0.910190     -1.843347     -1.853871
  H      -2.942516     -1.842145      0.415725
  H      -1.577647     -2.976574      0.293086
  H      -2.827454     -2.940755     -0.958466
27
Coordinates from ORCA-job opt E -876.482651309720
  C       2.956606      0.493906      1.687037
  C       2.319308     -0.246092      0.536764
  O       1.750194      0.721831     -0.375655
  P       0.597352      0.276520     -1.388677
  O       0.932393     -0.711160     -2.443240
  C       0.341729      1.920107     -2.115360
  N       0.142175      2.934617     -2.632886
  N      -0.737406     -0.083959     -0.511542
  C      -1.135613      0.711377      0.655459
  C      -2.330112      1.618985      0.392240
  C      -1.529487     -1.273436     -0.838342
  C      -1.005619     -2.518460     -0.148972
  H       2.205499      1.075755      2.241022
  H       3.738570      1.177540      1.326454
  H       3.417176     -0.226546      2.378321
  H       3.053748     -0.847432     -0.019793
  H       1.520853     -0.919113      0.890386
  H      -1.349284      0.017853      1.484978
  H      -0.270237      1.310625      0.975213
  H      -3.219938      1.043663      0.096102
  H      -2.110001      2.345810     -0.404229
  H      -2.582636      2.179414      1.304361
  H      -2.573877     -1.074670     -0.556894
  H      -1.519119     -1.412603     -1.926694
  H      -0.961559     -2.386404      0.941608
  H       0.006482     -2.750064     -0.510770
  H      -1.657196     -3.378065     -0.361553
27
Coordinates from ORCA-job opt E -876.482746309796
  C       2.973997      0.502017      1.689275
  C       2.339886     -0.241700      0.539881
  O       1.756669      0.722722     -0.367116
  P       0.601081      0.270907     -1.375002
  O       0.934418     -0.717914     -2.429086
  C       0.343815      1.911567     -2.106005
  N       0.142687      2.924249     -2.626434
  N      -0.736501     -0.085692     -0.499680
  C      -1.142839      0.716854      0.659648
  C      -2.337151      1.619689      0.380852
  C      -1.537704     -1.270552     -0.832188
  C      -1.020117     -2.532537     -0.162464
  H       2.219067      1.072836      2.249476
  H       3.746177      1.196298      1.327727
  H       3.446034     -0.215688      2.375534
  H       3.078470     -0.832605     -0.022314
  H       1.551113     -0.924885      0.894801
  H      -1.362430      0.027283      1.491229
  H      -0.281543      1.320168      0.982939
  H      -3.221408      1.039435      0.076857
  H      -2.110739      2.343783     -0.416175
  H      -2.601813      2.182729      1.288079
  H      -2.576605     -1.064121     -0.535356
  H      -1.545282     -1.396926     -1.923679
  H      -0.960142     -2.411614      0.929760
  H      -0.015149     -2.772799     -0.539743
  H      -1.683991     -3.383503     -0.375480
27
Coordinates from ORCA-job opt E -876.482763352666
  C       2.978161      0.513966      1.691152
  C       2.349111     -0.236828      0.543724
  O       1.759025      0.721896     -0.364784
  P       0.602983      0.263605     -1.369504
  O       0.936110     -0.728959     -2.420220
  C       0.345171      1.901207     -2.106928
  N       0.143333      2.911669     -2.631444
  N      -0.736587     -0.088917     -0.495701
  C      -1.143069      0.714393      0.663217
  C      -2.333931      1.621462      0.382416
  C      -1.543537     -1.269213     -0.832864
  C      -1.030651     -2.540498     -0.174872
  H       2.219221      1.079106      2.251703
  H       3.743990      1.214417      1.327955
  H       3.456960     -0.198931      2.377776
  H       3.091907     -0.822868     -0.018036
  H       1.565815     -0.925316      0.900383
  H      -1.366883      0.024359      1.493352
  H      -0.280481      1.314472      0.989392
  H      -3.217923      1.044093      0.072354
  H      -2.102046      2.347263     -0.411405
  H      -2.601599      2.182325      1.290095
  H      -2.578456     -1.057654     -0.525861
  H      -1.562092     -1.387424     -1.925601
  H      -0.964825     -2.426061      0.917964
  H      -0.028967     -2.785685     -0.558210
  H      -1.700740     -3.385880     -0.390716
27
Coordinates from ORCA-job opt E -876.482762821304
  C       2.976267      0.515393      1.691847
  C       2.351778     -0.236539      0.542660
  O       1.759024      0.721083     -0.365334
  P       0.602806      0.261835     -1.369242
  O       0.935253     -0.732145     -2.418880
  C       0.345386      1.898994     -2.108283
  N       0.143597      2.908996     -2.633739
  N      -0.737093     -0.089222     -0.495617
  C      -1.143015      0.713758      0.663756
  C      -2.332449      1.622909      0.383542
  C      -1.544320     -1.269137     -0.833164
  C      -1.031716     -2.540886     -0.175893
  H       2.214195      1.075855      2.252854
  H       3.738851      1.220272      1.330397
  H       3.458148     -0.196294      2.377585
  H       3.097801     -0.818487     -0.019057
  H       1.570974     -0.928907      0.897425
  H      -1.367774      0.023253      1.493230
  H      -0.279568      1.312218      0.990501
  H      -3.216783      1.047183      0.071406
  H      -2.098746      2.349824     -0.408734
  H      -2.600380      2.182444      1.291928
  H      -2.578486     -1.057034     -0.523870
  H      -1.565225     -1.386675     -1.925905
  H      -0.967706     -2.426419      0.917026
  H      -0.029446     -2.786137     -0.557624
  H      -1.701374     -3.386135     -0.393478
27
Coordinates from ORCA-job opt E -876.482764209139
  C       2.971587      0.516964      1.692734
  C       2.353444     -0.236359      0.540993
  O       1.759420      0.719839     -0.367702
  P       0.602652      0.260072     -1.370383
  O       0.933800     -0.735467     -2.418986
  C       0.345529      1.896945     -2.110819
  N       0.143635      2.906567     -2.636980
  N      -0.736963     -0.089502     -0.495934
  C      -1.141229      0.712809      0.664427
  C      -2.329387      1.624043      0.385849
  C      -1.544854     -1.268947     -0.833347
  C      -1.032359     -2.540799     -0.176527
  H       2.205541      1.072975      2.252760
  H       3.731484      1.226056      1.333871
  H       3.455556     -0.193236      2.378551
  H       3.103544     -0.814430     -0.019254
  H       1.574581     -0.932408      0.892852
  H      -1.366291      0.021726      1.493304
  H      -0.276598      1.309572      0.991093
  H      -3.214360      1.050078      0.072231
  H      -2.094461      2.352234     -0.404898
  H      -2.596774      2.182087      1.295288
  H      -2.578416     -1.056624     -0.522024
  H      -1.567728     -1.385992     -1.925997
  H      -0.970916     -2.426420      0.916496
  H      -0.029199     -2.785681     -0.556056
  H      -1.701237     -3.386103     -0.396210
27
Coordinates from ORCA-job opt E -876.482762370945
  C       2.967530      0.517829      1.693459
  C       2.354343     -0.236325      0.539579
  O       1.760255      0.718908     -0.370080
  P       0.602735      0.259113     -1.371645
  O       0.932641     -0.737085     -2.420012
  C       0.345527      1.895896     -2.112514
  N       0.143335      2.905407     -2.638778
  N      -0.736278     -0.089728     -0.495977
  C      -1.139284      0.712437      0.664911
  C      -2.327053      1.624454      0.387380
  C      -1.545050     -1.268703     -0.833023
  C      -1.032733     -2.540811     -0.176693
  H       2.198554      1.071227      2.252047
  H       3.726216      1.229347      1.336831
  H       3.452036     -0.191450      2.379846
  H       3.107465     -0.811987     -0.019067
  H       1.576421     -0.934665      0.888959
  H      -1.364132      0.021238      1.493741
  H      -0.274068      1.308597      0.991099
  H      -3.212399      1.051176      0.073559
  H      -2.091966      2.353116     -0.402889
  H      -2.593850      2.181976      1.297317
  H      -2.578268     -1.056183     -0.520675
  H      -1.568932     -1.385391     -1.925657
  H      -0.972068     -2.426819      0.916402
  H      -0.029364     -2.785661     -0.555636
  H      -1.701613     -3.385913     -0.397151
27
Coordinates from ORCA-job opt E -876.482761766486
  C       2.956565      0.519814      1.695530
  C       2.356967     -0.236204      0.535655
  O       1.762938      0.716616     -0.376533
  P       0.603139      0.256847     -1.375007
  O       0.929658     -0.740488     -2.423321
  C       0.345250      1.893379     -2.116532
  N       0.141970      2.902709     -2.642723
  N      -0.734020     -0.090476     -0.495780
  C      -1.133869      0.711821      0.666107
  C      -2.320984      1.625380      0.390971
  C      -1.545439     -1.268039     -0.831739
  C      -1.033888     -2.541164     -0.176910
  H       2.179687      1.066328      2.249921
  H       3.712379      1.237585      1.345364
  H       3.441857     -0.187275      2.383610
  H       3.118256     -0.805252     -0.018622
  H       1.581562     -0.940754      0.878034
  H      -1.357981      0.020678      1.495175
  H      -0.267385      1.306919      0.990804
  H      -3.207309      1.053425      0.077525
  H      -2.086004      2.354652     -0.398771
  H      -2.586022      2.182264      1.301823
  H      -2.577773     -1.054607     -0.517117
  H      -1.571675     -1.383882     -1.924385
  H      -0.973327     -2.428319      0.916309
  H      -0.030764     -2.786667     -0.556006
  H      -1.703790     -3.385293     -0.398048
27
Coordinates from ORCA-job opt E -876.482766722875
  C       2.942878      0.521998      1.698094
  C       2.360111     -0.235940      0.530823
  O       1.766401      0.714098     -0.384427
  P       0.603678      0.254398     -1.379180
  O       0.926165     -0.743762     -2.427912
  C       0.344655      1.890586     -2.121135
  N       0.139882      2.899807     -2.646962
  N      -0.731078     -0.091533     -0.495586
  C      -1.127113      0.711105      0.667365
  C      -2.313503      1.626498      0.395168
  C      -1.545699     -1.267370     -0.830108
  C      -1.035304     -2.541784     -0.176856
  H       2.156457      1.060341      2.246971
  H       3.695574      1.247025      1.356236
  H       3.428362     -0.182710      2.388473
  H       3.131307     -0.796784     -0.018030
  H       1.587840     -0.948070      0.864427
  H      -1.350341      0.020111      1.496797
  H      -0.259173      1.305019      0.990263
  H      -3.201237      1.056060      0.082983
  H      -2.078995      2.356059     -0.394450
  H      -2.575950      2.183120      1.306939
  H      -2.577008     -1.052360     -0.513257
  H      -1.574406     -1.382648     -1.922762
  H      -0.972936     -2.429903      0.916378
  H      -0.033241     -2.788913     -0.557689
  H      -1.707325     -3.384449     -0.397230
27
Coordinates from ORCA-job opt E -876.482772157690
  C       2.930442      0.523466      1.700486
  C       2.363236     -0.235655      0.526248
  O       1.769736      0.712131     -0.391473
  P       0.604159      0.252547     -1.382868
  O       0.923064     -0.745829     -2.432454
  C       0.343803      1.888398     -2.124853
  N       0.137487      2.897633     -2.650057
  N      -0.728308     -0.092574     -0.495373
  C      -1.121119      0.710629      0.668265
  C      -2.306952      1.627516      0.398519
  C      -1.545697     -1.266883     -0.828510
  C      -1.036576     -2.542414     -0.176308
  H       2.135430      1.054364      2.244200
  H       3.680562      1.254930      1.366782
  H       3.415470     -0.179509      2.392960
  H       3.143433     -0.788580     -0.017851
  H       1.594092     -0.954961      0.851534
  H      -1.343592      0.019908      1.498134
  H      -0.252017      1.303660      0.989575
  H      -3.196094      1.058246      0.088223
  H      -2.073180      2.356827     -0.391548
  H      -2.566759      2.184455      1.310851
  H      -2.576145     -1.049930     -0.510209
  H      -1.576246     -1.382201     -1.921135
  H      -0.970726     -2.430777      0.916767
  H      -0.036217     -2.791877     -0.560126
  H      -1.711287     -3.383521     -0.394443
27
Coordinates from ORCA-job opt E -876.482773143372
  C       2.915201      0.525241      1.703254
  C       2.366741     -0.235077      0.520844
  O       1.773616      0.710095     -0.399848
  P       0.604662      0.250438     -1.387343
  O       0.919576     -0.748181     -2.437889
  C       0.342663      1.885774     -2.129521
  N       0.134497      2.895004     -2.654012
  N      -0.725112     -0.093872     -0.495454
  C      -1.113882      0.709767      0.669221
  C      -2.298807      1.628873      0.402841
  C      -1.545560     -1.266476     -0.826913
  C      -1.038025     -2.543152     -0.175516
  H       2.110116      1.047525      2.240464
  H       3.662501      1.264059      1.379606
  H       3.399011     -0.175874      2.398486
  H       3.157485     -0.778498     -0.017511
  H       1.601454     -0.962858      0.836184
  H      -1.335614      0.019127      1.499360
  H      -0.243178      1.301322      0.988844
  H      -3.189929      1.061317      0.095086
  H      -2.065942      2.357864     -0.387783
  H      -2.555003      2.186140      1.315991
  H      -2.575003     -1.046839     -0.507170
  H      -1.578143     -1.382305     -1.919453
  H      -0.967110     -2.431081      0.917215
  H      -0.040056     -2.795933     -0.563461
  H      -1.716160     -3.382400     -0.390188
27
Coordinates from ORCA-job opt E -876.482773331473
  C       2.911656      0.525281      1.703823
  C       2.367366     -0.234960      0.519443
  O       1.774393      0.709872     -0.401743
  P       0.604679      0.250171     -1.388435
  O       0.918844     -0.748514     -2.439163
  C       0.342335      1.885394     -2.130674
  N       0.133776      2.894652     -2.654955
  N      -0.724503     -0.094041     -0.495695
  C      -1.112356      0.709559      0.669316
  C      -2.297038      1.629228      0.403828
  C      -1.545338     -1.266474     -0.826649
  C      -1.038067     -2.543081     -0.174916
  H       2.104417      1.045751      2.239591
  H       3.658552      1.265631      1.382775
  H       3.394805     -0.175700      2.399661
  H       3.160333     -0.776225     -0.017796
  H       1.602903     -0.964630      0.832413
  H      -1.333956      0.018803      1.499395
  H      -0.241233      1.300637      0.988663
  H      -3.188648      1.062095      0.096695
  H      -2.064419      2.358177     -0.386902
  H      -2.552343      2.186473      1.317233
  H      -2.574631     -1.046172     -0.506851
  H      -1.578171     -1.382793     -1.919117
  H      -0.965891     -2.430307      0.917652
  H      -0.040649     -2.796737     -0.563729
  H      -1.716817     -3.382089     -0.388528
27
Coordinates from ORCA-job opt E -876.482774310684
  C       2.914052      0.524292      1.703388
  C       2.366786     -0.235148      0.519902
  O       1.773778      0.710551     -0.400432
  P       0.604482      0.250889     -1.387787
  O       0.919427     -0.747642     -2.438461
  C       0.342381      1.886230     -2.129871
  N       0.134097      2.895589     -2.654065
  N      -0.725107     -0.093646     -0.495883
  C      -1.113744      0.709869      0.668942
  C      -2.298666      1.629047      0.402904
  C      -1.545065     -1.266652     -0.826891
  C      -1.037442     -2.542655     -0.174308
  H       2.108492      1.046216      2.240280
  H       3.661801      1.263369      1.381405
  H       3.396797     -0.177501      2.398695
  H       3.157989     -0.777739     -0.018606
  H       1.601662     -0.963605      0.834104
  H      -1.335443      0.019043      1.498935
  H      -0.242922      1.301204      0.988629
  H      -3.189964      1.061486      0.095643
  H      -2.066103      2.357906     -0.387922
  H      -2.554477      2.186326      1.316143
  H      -2.574644     -1.046635     -0.507791
  H      -1.577216     -1.383463     -1.919311
  H      -0.965530     -2.429075      0.918180
  H      -0.039805     -2.796108     -0.562697
  H      -1.715615     -3.382148     -0.387795
27
Coordinates from ORCA-job opt E -876.482771634174
  C       2.913042      0.524568      1.703549
  C       2.367069     -0.235030      0.519573
  O       1.774025      0.710428     -0.400997
  P       0.604532      0.250619     -1.388037
  O       0.919257     -0.748108     -2.438594
  C       0.342336      1.885880     -2.130305
  N       0.133919      2.895203     -2.654515
  N      -0.724906     -0.093742     -0.495849
  C      -1.113233      0.709754      0.669100
  C      -2.298028      1.629157      0.403291
  C      -1.545145     -1.266591     -0.826799
  C      -1.037641     -2.542745     -0.174431
  H       2.106773      1.045859      2.239984
  H       3.660513      1.264196      1.382188
  H       3.395789     -0.177016      2.399068
  H       3.159002     -0.776973     -0.018513
  H       1.602252     -0.964063      0.833176
  H      -1.334926      0.018902      1.499071
  H      -0.242256      1.300910      0.988697
  H      -3.189432      1.061773      0.096015
  H      -2.065415      2.358094     -0.387449
  H      -2.553680      2.186341      1.316636
  H      -2.574626     -1.046461     -0.507462
  H      -1.577548     -1.383241     -1.919228
  H      -0.965667     -2.429289      0.918065
  H      -0.040059     -2.796316     -0.562891
  H      -1.715947     -3.382108     -0.388010
27
Coordinates from ORCA-job opt E -876.482771187905
  C       2.894482      0.527386      1.706470
  C       2.372316     -0.233714      0.512769
  O       1.778521      0.708181     -0.411134
  P       0.605291      0.246808     -1.392818
  O       0.915649     -0.754411     -2.442323
  C       0.341347      1.881041     -2.137151
  N       0.130590      2.890064     -2.661024
  N      -0.721199     -0.095064     -0.495385
  C      -1.104461      0.708608      0.671210
  C      -2.287657      1.631102      0.409137
  C      -1.545756     -1.265614     -0.824674
  C      -1.040065     -2.543653     -0.174699
  H       2.075373      1.036450      2.235075
  H       3.636732      1.277402      1.397325
  H       3.377247     -0.171163      2.405046
  H       3.177480     -0.763003     -0.018172
  H       1.613344     -0.973754      0.814461
  H      -1.325573      0.017660      1.501229
  H      -0.231194      1.297397      0.988836
  H      -3.180855      1.066145      0.102641
  H      -2.054918      2.360780     -0.380880
  H      -2.540291      2.187340      1.323920
  H      -2.573725     -1.043305     -0.501990
  H      -1.581902     -1.380791     -1.917136
  H      -0.966051     -2.431213      0.917759
  H      -0.043806     -2.799680     -0.564984
  H      -1.720920     -3.381000     -0.388174
27
Coordinates from ORCA-job opt E -876.482770520919
  C       2.912145      0.524507      1.703698
  C       2.367423     -0.235019      0.519098
  O       1.774270      0.710364     -0.401497
  P       0.604568      0.250476     -1.388251
  O       0.919086     -0.748405     -2.438722
  C       0.342271      1.885700     -2.130597
  N       0.133698      2.895047     -2.654702
  N      -0.724717     -0.093746     -0.495791
  C      -1.112865      0.709821      0.669178
  C      -2.297651      1.629261      0.403459
  C      -1.545134     -1.266529     -0.826616
  C      -1.037688     -2.542729     -0.174304
  H       2.105184      1.045064      2.239805
  H       3.659332      1.264749      1.383093
  H       3.394907     -0.177002      2.399282
  H       3.160063     -0.776189     -0.018718
  H       1.602944     -0.964710      0.831989
  H      -1.334484      0.019013      1.499203
  H      -0.241822      1.300952      0.988628
  H      -3.189082      1.061898      0.096227
  H      -2.065068      2.358204     -0.387283
  H      -2.553228      2.186434      1.316831
  H      -2.574557     -1.046338     -0.507140
  H      -1.577695     -1.383117     -1.919048
  H      -0.965690     -2.429289      0.918191
  H      -0.040137     -2.796393     -0.562782
  H      -1.716074     -3.382024     -0.387898
27
Coordinates from ORCA-job opt E -876.482772171478
  C       2.911985      0.524492      1.703710
  C       2.367400     -0.235017      0.519037
  O       1.774311      0.710373     -0.401590
  P       0.604580      0.250471     -1.388308
  O       0.919088     -0.748426     -2.438766
  C       0.342240      1.885698     -2.130634
  N       0.133606      2.895073     -2.654658
  N      -0.724672     -0.093748     -0.495804
  C      -1.112772      0.709827      0.669172
  C      -2.297570      1.629264      0.403490
  C      -1.545109     -1.266529     -0.826596
  C      -1.037665     -2.542725     -0.174274
  H       2.104960      1.045048      2.239724
  H       3.659215      1.264734      1.383204
  H       3.394660     -0.177024      2.399347
  H       3.160103     -0.776155     -0.018720
  H       1.602909     -0.964732      0.831841
  H      -1.334355      0.019028      1.499214
  H      -0.241710      1.300960      0.988578
  H      -3.189015      1.061896      0.096306
  H      -2.065022      2.358195     -0.387274
  H      -2.553108      2.186455      1.316863
  H      -2.574528     -1.046335     -0.507111
  H      -1.577682     -1.383125     -1.919028
  H      -0.965665     -2.429285      0.918222
  H      -0.040120     -2.796400     -0.562756
  H      -1.716063     -3.382014     -0.387855
27
Coordinates from ORCA-job opt E -876.482765219600
  C       2.891855      0.522157      1.705427
  C       2.366545     -0.235145      0.510668
  O       1.779684      0.710684     -0.413431
  P       0.605929      0.249697     -1.395291
  O       0.918100     -0.750953     -2.444725
  C       0.339085      1.885309     -2.135310
  N       0.123696      2.897753     -2.650531
  N      -0.719379     -0.093669     -0.497180
  C      -1.101973      0.711029      0.668619
  C      -2.288272      1.629911      0.407232
  C      -1.542195     -1.266324     -0.823801
  C      -1.035115     -2.541917     -0.170005
  H       2.075465      1.039640      2.230348
  H       3.642345      1.264766      1.398381
  H       3.365252     -0.180025      2.406748
  H       3.168609     -0.769828     -0.019648
  H       1.602267     -0.969989      0.811488
  H      -1.319315      0.021243      1.500617
  H      -0.229052      1.302551      0.982878
  H      -3.181128      1.061764      0.105526
  H      -2.059874      2.357521     -0.385995
  H      -2.539324      2.188931      1.320832
  H      -2.571056     -1.045415     -0.503031
  H      -1.576508     -1.384123     -1.916136
  H      -0.962538     -2.427860      0.922423
  H      -0.038194     -2.797216     -0.558912
  H      -1.714908     -3.380490     -0.381857
27
Coordinates from ORCA-job opt E -876.482772611449
  C       2.911348      0.524234      1.703770
  C       2.367439     -0.235075      0.518654
  O       1.774521      0.710421     -0.401978
  P       0.604639      0.250479     -1.388527
  O       0.919091     -0.748490     -2.438929
  C       0.342107      1.885742     -2.130715
  N       0.133126      2.895306     -2.654234
  N      -0.724492     -0.093697     -0.495845
  C      -1.112462      0.709986      0.669095
  C      -2.297378      1.629294      0.403480
  C      -1.544967     -1.266519     -0.826446
  C      -1.037510     -2.542651     -0.174010
  H       2.103984      1.044617      2.239444
  H       3.658691      1.264599      1.383813
  H       3.393703     -0.177372      2.399538
  H       3.160481     -0.775898     -0.018919
  H       1.602983     -0.965031      0.830973
  H      -1.333847      0.019278      1.499265
  H      -0.241381      1.301223      0.988273
  H      -3.188825      1.061805      0.096523
  H      -2.065022      2.358131     -0.387427
  H      -2.552812      2.186609      1.316811
  H      -2.574373     -1.046327     -0.506917
  H      -1.577601     -1.383199     -1.918868
  H      -0.965570     -2.429162      0.918486
  H      -0.039953     -2.796358     -0.562437
  H      -1.715921     -3.381944     -0.387538
27
Coordinates from ORCA-job opt E -876.482771918775
  C       2.911611      0.524229      1.703733
  C       2.367401     -0.235087      0.518760
  O       1.774452      0.710433     -0.401829
  P       0.604632      0.250502     -1.388461
  O       0.919144     -0.748452     -2.438859
  C       0.342145      1.885767     -2.130655
  N       0.133171      2.895347     -2.654145
  N      -0.724568     -0.093683     -0.495871
  C      -1.112604      0.709982      0.669067
  C      -2.297510      1.629290      0.403419
  C      -1.544977     -1.266534     -0.826497
  C      -1.037500     -2.542642     -0.174027
  H       2.104399      1.044714      2.239537
  H       3.658963      1.264508      1.383595
  H       3.394034     -0.177393      2.399439
  H       3.160283     -0.776047     -0.018909
  H       1.602903     -0.964927      0.831249
  H      -1.334030      0.019255      1.499210
  H      -0.241547      1.301213      0.988312
  H      -3.188944      1.061809      0.096414
  H      -2.065118      2.358142     -0.387463
  H      -2.552981      2.186584      1.316748
  H      -2.574398     -1.046358     -0.507007
  H      -1.577568     -1.383243     -1.918916
  H      -0.965575     -2.429120      0.918467
  H      -0.039930     -2.796330     -0.562436
  H      -1.715886     -3.381960     -0.387540
27
Coordinates from ORCA-job opt E -876.482771978792
  C       2.912382      0.524284      1.703629
  C       2.367252     -0.235108      0.519122
  O       1.774290      0.710444     -0.401426
  P       0.604652      0.250516     -1.388292
  O       0.919338     -0.748427     -2.438641
  C       0.342272      1.885788     -2.130490
  N       0.133147      2.895514     -2.653638
  N      -0.724760     -0.093653     -0.495962
  C      -1.112956      0.709972      0.668965
  C      -2.297860      1.629247      0.403242
  C      -1.545015     -1.266567     -0.826666
  C      -1.037505     -2.542642     -0.174147
  H       2.105647      1.045179      2.239747
  H       3.659823      1.264223      1.382904
  H       3.394943     -0.177360      2.399217
  H       3.159637     -0.776574     -0.018764
  H       1.602569     -0.964528      0.832151
  H      -1.334454      0.019210      1.499063
  H      -0.241969      1.301220      0.988347
  H      -3.189264      1.061757      0.096170
  H      -2.065413      2.358107     -0.387613
  H      -2.553400      2.186526      1.316555
  H      -2.574465     -1.046414     -0.507255
  H      -1.577512     -1.383332     -1.919078
  H      -0.965593     -2.429073      0.918342
  H      -0.039921     -2.796308     -0.562541
  H      -1.715865     -3.381999     -0.387605
27
Coordinates from ORCA-job opt E -876.482769883929
  C       2.915178      0.524111      1.703164
  C       2.366680     -0.235389      0.520279
  O       1.773770      0.710429     -0.400020
  P       0.604705      0.250722     -1.387702
  O       0.919894     -0.748072     -2.438027
  C       0.342730      1.886162     -2.129636
  N       0.133083      2.896484     -2.651414
  N      -0.725382     -0.093431     -0.496241
  C      -1.114256      0.710163      0.668507
  C      -2.299385      1.629008      0.402371
  C      -1.545032     -1.266669     -0.827113
  C      -1.037298     -2.542491     -0.174270
  H       2.110232      1.046629      2.240377
  H       3.663110      1.262683      1.380423
  H       3.398029     -0.177729      2.398352
  H       3.157227     -0.778716     -0.018436
  H       1.601257     -0.963226      0.835201
  H      -1.335808      0.019376      1.498575
  H      -0.243611      1.301730      0.988187
  H      -3.190544      1.061213      0.095159
  H      -2.066957      2.357841     -0.388510
  H      -2.555309      2.186314      1.315553
  H      -2.574645     -1.046742     -0.508083
  H      -1.577102     -1.383686     -1.919502
  H      -0.965672     -2.428716      0.918216
  H      -0.039547     -2.795891     -0.562391
  H      -1.715350     -3.382105     -0.387687
27
Coordinates from ORCA-job opt E -876.482769129663
  C       2.913635      0.524095      1.703417
  C       2.367054     -0.235273      0.519566
  O       1.774066      0.710441     -0.400791
  P       0.604682      0.250611     -1.388014
  O       0.919594     -0.748297     -2.438322
  C       0.342475      1.885972     -2.130070
  N       0.132975      2.896041     -2.652404
  N      -0.725027     -0.093521     -0.496072
  C      -1.113549      0.710130      0.668728
  C      -2.298598      1.629144      0.402753
  C      -1.545011     -1.266601     -0.826818
  C      -1.037382     -2.542532     -0.174116
  H       2.107666      1.045634      2.240059
  H       3.661266      1.263486      1.381868
  H       3.396343     -0.177667      2.398780
  H       3.158652     -0.777479     -0.018740
  H       1.602079     -0.964050      0.833379
  H      -1.335031      0.019397      1.498855
  H      -0.242729      1.301581      0.988187
  H      -3.189857      1.061454      0.095635
  H      -2.066191      2.357966     -0.388148
  H      -2.554354      2.186466      1.315979
  H      -2.574547     -1.046583     -0.507594
  H      -1.577304     -1.383484     -1.919222
  H      -0.965661     -2.428860      0.918376
  H      -0.039692     -2.796042     -0.562332
  H      -1.715556     -3.382031     -0.387602
27
Coordinates from ORCA-job opt E -876.482772597816
  C       2.901752      0.524271      1.705352
  C       2.369964     -0.234357      0.514325
  O       1.776300      0.710356     -0.406641
  P       0.604612      0.249495     -1.390485
  O       0.917474     -0.750376     -2.440528
  C       0.340677      1.884213     -2.133541
  N       0.131762      2.892627     -2.659334
  N      -0.722399     -0.094293     -0.494987
  C      -1.108084      0.709777      0.670300
  C      -2.292371      1.630316      0.405782
  C      -1.544945     -1.266099     -0.824744
  C      -1.038175     -2.542944     -0.173173
  H       2.087879      1.037997      2.237665
  H       3.646611      1.270176      1.392633
  H       3.383882     -0.176632      2.401975
  H       3.169669     -0.767931     -0.020666
  H       1.608593     -0.970375      0.819786
  H      -1.329124      0.019404      1.500827
  H      -0.235871      1.300172      0.988172
  H      -3.184531      1.063672      0.099310
  H      -2.059986      2.359152     -0.385145
  H      -2.546693      2.187669      1.319438
  H      -2.573816     -1.045253     -0.503912
  H      -1.579066     -1.382064     -1.917248
  H      -0.965585     -2.430088      0.919355
  H      -0.041054     -2.797422     -0.562258
  H      -1.717475     -3.381461     -0.386921
27
Coordinates from ORCA-job opt E -876.482770479102
  C       2.912197      0.524103      1.703663
  C       2.367438     -0.235172      0.518915
  O       1.774345      0.710419     -0.401503
  P       0.604687      0.250455     -1.388316
  O       0.919348     -0.748598     -2.438565
  C       0.342280      1.885733     -2.130510
  N       0.132736      2.895650     -2.653125
  N      -0.724702     -0.093607     -0.495945
  C      -1.112880      0.710108      0.668902
  C      -2.297855      1.629284      0.403096
  C      -1.545009     -1.266528     -0.826564
  C      -1.037491     -2.542567     -0.173990
  H       2.105249      1.044649      2.239806
  H       3.659465      1.264326      1.383204
  H       3.394869     -0.177554      2.399158
  H       3.160044     -0.776300     -0.019001
  H       1.602913     -0.964860      0.831695
  H      -1.334291      0.019433      1.499095
  H      -0.241899      1.301454      0.988146
  H      -3.189213      1.061700      0.096062
  H      -2.065465      2.358106     -0.387814
  H      -2.553449      2.186609      1.316372
  H      -2.574466     -1.046403     -0.507154
  H      -1.577520     -1.383308     -1.918981
  H      -0.965653     -2.428985      0.918505
  H      -0.039875     -2.796200     -0.562317
  H      -1.715805     -3.381945     -0.387499
27
Coordinates from ORCA-job opt E -876.482772484258
  C       2.912764      0.524235      1.703565
  C       2.367240     -0.235182      0.519260
  O       1.774248      0.710385     -0.401245
  P       0.604707      0.250459     -1.388217
  O       0.919454     -0.748554     -2.438479
  C       0.342379      1.885755     -2.130383
  N       0.132736      2.895757     -2.652791
  N      -0.724805     -0.093613     -0.496005
  C      -1.113082      0.710059      0.668850
  C      -2.298066      1.629211      0.403020
  C      -1.545038     -1.266548     -0.826708
  C      -1.037512     -2.542590     -0.174143
  H       2.106239      1.045290      2.239847
  H       3.660224      1.264043      1.382587
  H       3.395407     -0.177414      2.399088
  H       3.159414     -0.776849     -0.018744
  H       1.602490     -0.964427      0.832529
  H      -1.334530      0.019346      1.499002
  H      -0.242145      1.301415      0.988181
  H      -3.189407      1.061618      0.095953
  H      -2.065663      2.358045     -0.387872
  H      -2.553694      2.186518      1.316294
  H      -2.574513     -1.046434     -0.507355
  H      -1.577480     -1.383330     -1.919122
  H      -0.965669     -2.429015      0.918351
  H      -0.039891     -2.796196     -0.562475
  H      -1.715806     -3.381984     -0.387653
27
Coordinates from ORCA-job opt E -876.482770891548
  C       2.913980      0.524396      1.703328
  C       2.366813     -0.235268      0.519942
  O       1.774046      0.710302     -0.400703
  P       0.604736      0.250509     -1.388007
  O       0.919642     -0.748389     -2.438332
  C       0.342569      1.885895     -2.130015
  N       0.132646      2.896141     -2.651835
  N      -0.725019     -0.093596     -0.496124
  C      -1.113540      0.710016      0.668702
  C      -2.298569      1.629061      0.402748
  C      -1.545059     -1.266605     -0.826969
  C      -1.037475     -2.542604     -0.174365
  H       2.108364      1.046532      2.239919
  H       3.661861      1.263313      1.381274
  H       3.396541     -0.177266      2.398894
  H       3.158059     -0.778071     -0.018277
  H       1.601574     -0.963567      0.834232
  H      -1.335048      0.019261      1.498805
  H      -0.242715      1.301444      0.988186
  H      -3.189844      1.061398      0.095624
  H      -2.066149      2.357892     -0.388140
  H      -2.554309      2.186367      1.315987
  H      -2.574590     -1.046555     -0.507752
  H      -1.577339     -1.383414     -1.919382
  H      -0.965697     -2.429010      0.918130
  H      -0.039807     -2.796109     -0.562638
  H      -1.715672     -3.382071     -0.387897
27
Coordinates from ORCA-job opt E -876.482770759025
  C       2.913266      0.524309      1.703469
  C       2.367083     -0.235214      0.519538
  O       1.774160      0.710347     -0.401016
  P       0.604719      0.250467     -1.388120
  O       0.919533     -0.748508     -2.438400
  C       0.342453      1.885797     -2.130232
  N       0.132635      2.895907     -2.652359
  N      -0.724887     -0.093614     -0.496040
  C      -1.113268      0.710038      0.668796
  C      -2.298256      1.629159      0.402892
  C      -1.545055     -1.266572     -0.826811
  C      -1.037511     -2.542603     -0.174241
  H       2.107104      1.045784      2.239885
  H       3.660881      1.263771      1.382054
  H       3.395892     -0.177339      2.399006
  H       3.158887     -0.777324     -0.018565
  H       1.602148     -0.964088      0.833222
  H      -1.334759      0.019313      1.498928
  H      -0.242372      1.301416      0.988194
  H      -3.189569      1.061546      0.095785
  H      -2.065823      2.357989     -0.387995
  H      -2.553943      2.186469      1.316148
  H      -2.574552     -1.046486     -0.507507
  H      -1.577436     -1.383345     -1.919227
  H      -0.965703     -2.429030      0.918254
  H      -0.039867     -2.796163     -0.562543
  H      -1.715761     -3.382025     -0.387782
27
Coordinates from ORCA-job opt E -876.482779397526
  C       2.903977      0.523354      1.705141
  C       2.369977     -0.234594      0.514662
  O       1.775745      0.710749     -0.405285
  P       0.604600      0.249915     -1.389877
  O       0.918111     -0.749946     -2.439706
  C       0.341065      1.884635     -2.133012
  N       0.132194      2.893303     -2.658322
  N      -0.723088     -0.093855     -0.495226
  C      -1.109507      0.710236      0.669844
  C      -2.294093      1.630246      0.404906
  C      -1.544867     -1.266150     -0.824951
  C      -1.037815     -2.542532     -0.172698
  H       2.091178      1.037242      2.238897
  H       3.648680      1.269050      1.391531
  H       3.386902     -0.178050      2.400713
  H       3.168569     -0.768658     -0.021484
  H       1.608468     -0.970135      0.820941
  H      -1.330557      0.019844      1.500358
  H      -0.237699      1.301014      0.988034
  H      -3.185942      1.063218      0.098248
  H      -2.061763      2.359094     -0.386015
  H      -2.548893      2.187571      1.318441
  H      -2.573939     -1.045525     -0.504619
  H      -1.578476     -1.382668     -1.917395
  H      -0.965471     -2.429126      0.919793
  H      -0.040542     -2.796862     -0.561476
  H      -1.716816     -3.381373     -0.386110
27
Coordinates from ORCA-job opt E -876.482764617203
  C       2.912425      0.524207      1.703622
  C       2.367351     -0.235167      0.519086
  O       1.774302      0.710381     -0.401401
  P       0.604712      0.250415     -1.388282
  O       0.919409     -0.748644     -2.438517
  C       0.342329      1.885692     -2.130483
  N       0.132528      2.895694     -2.652829
  N      -0.724720     -0.093633     -0.495969
  C      -1.112929      0.710063      0.668883
  C      -2.297878      1.629263      0.403054
  C      -1.545034     -1.266534     -0.826640
  C      -1.037533     -2.542589     -0.174084
  H       2.105656      1.044980      2.239810
  H       3.659770      1.264248      1.382922
  H       3.395088     -0.177423      2.399152
  H       3.159775     -0.776538     -0.018850
  H       1.602727     -0.964656      0.832090
  H      -1.334384      0.019372      1.499051
  H      -0.241952      1.301390      0.988172
  H      -3.189237      1.061701      0.095980
  H      -2.065449      2.358094     -0.387836
  H      -2.553495      2.186576      1.316333
  H      -2.574496     -1.046401     -0.507252
  H      -1.577518     -1.383293     -1.919058
  H      -0.965677     -2.429017      0.918410
  H      -0.039922     -2.796220     -0.562425
  H      -1.715848     -3.381962     -0.387605
27
Coordinates from ORCA-job opt E -876.482772631525
  C       2.913197      0.524422      1.703491
  C       2.367093     -0.235174      0.519571
  O       1.774163      0.710322     -0.401043
  P       0.604730      0.250414     -1.388129
  O       0.919526     -0.748595     -2.438382
  C       0.342488      1.885707     -2.130337
  N       0.132644      2.895762     -2.652562
  N      -0.724864     -0.093641     -0.496029
  C      -1.113203      0.709984      0.668839
  C      -2.298167      1.629157      0.402995
  C      -1.545092     -1.266549     -0.826837
  C      -1.037581     -2.542630     -0.174334
  H       2.106996      1.045880      2.239866
  H       3.660786      1.263907      1.382073
  H       3.395835     -0.177175      2.399071
  H       3.158943     -0.777268     -0.018482
  H       1.602180     -0.964073      0.833251
  H      -1.334707      0.019234      1.498947
  H      -0.242283      1.301321      0.988248
  H      -3.189501      1.061583      0.095869
  H      -2.065725      2.358020     -0.387858
  H      -2.553829      2.186428      1.316283
  H      -2.574576     -1.046437     -0.507509
  H      -1.577497     -1.383273     -1.919259
  H      -0.965750     -2.429106      0.918164
  H      -0.039952     -2.796200     -0.562663
  H      -1.715857     -3.382020     -0.387910
27
Coordinates from ORCA-job opt E -876.482771980514
  C       2.913028      0.524364      1.703517
  C       2.367147     -0.235171      0.519458
  O       1.774192      0.710345     -0.401120
  P       0.604726      0.250417     -1.388160
  O       0.919507     -0.748602     -2.438409
  C       0.342434      1.885706     -2.130360
  N       0.132545      2.895758     -2.652573
  N      -0.724826     -0.093643     -0.496010
  C      -1.113144      0.710000      0.668849
  C      -2.298091      1.629190      0.402989
  C      -1.545072     -1.266552     -0.826791
  C      -1.037564     -2.542623     -0.174270
  H       2.106705      1.045678      2.239850
  H       3.660573      1.263966      1.382265
  H       3.395659     -0.177248      2.399086
  H       3.159120     -0.777105     -0.018576
  H       1.602296     -0.964199      0.832988
  H      -1.334653      0.019267      1.498968
  H      -0.242208      1.301326      0.988238
  H      -3.189432      1.061627      0.095868
  H      -2.065634      2.358038     -0.387875
  H      -2.553746      2.186479      1.316268
  H      -2.574551     -1.046437     -0.507452
  H      -1.577492     -1.383281     -1.919211
  H      -0.965737     -2.429085      0.918227
  H      -0.039934     -2.796204     -0.562592
  H      -1.715844     -3.382012     -0.387840
27
Coordinates from ORCA-job opt E -876.482772790301
  C       2.912743      0.524340      1.703560
  C       2.367230     -0.235153      0.519304
  O       1.774250      0.710359     -0.401265
  P       0.604722      0.250399     -1.388215
  O       0.919463     -0.748630     -2.438469
  C       0.342334      1.885685     -2.130395
  N       0.132342      2.895727     -2.652588
  N      -0.724749     -0.093679     -0.495965
  C      -1.113023      0.709993      0.668886
  C      -2.297912      1.629252      0.402995
  C      -1.545054     -1.266561     -0.826720
  C      -1.037568     -2.542649     -0.174217
  H       2.106220      1.045455      2.239788
  H       3.660228      1.264106      1.382547
  H       3.395346     -0.177266      2.399153
  H       3.159404     -0.776860     -0.018664
  H       1.602470     -0.964368      0.832616
  H      -1.334575      0.019283      1.499011
  H      -0.242048      1.301271      0.988266
  H      -3.189277      1.061739      0.095852
  H      -2.065394      2.358084     -0.387868
  H      -2.553561      2.186561      1.316264
  H      -2.574518     -1.046429     -0.507342
  H      -1.577519     -1.383265     -1.919143
  H      -0.965720     -2.429118      0.918281
  H      -0.039952     -2.796261     -0.562557
  H      -1.715880     -3.382014     -0.387781
27
Coordinates from ORCA-job opt E -876.482769960015
  C       2.912410      0.524339      1.703611
  C       2.367305     -0.235130      0.519151
  O       1.774312      0.710358     -0.401436
  P       0.604719      0.250370     -1.388291
  O       0.919407     -0.748671     -2.438552
  C       0.342261      1.885646     -2.130466
  N       0.132197      2.895664     -2.652680
  N      -0.724665     -0.093715     -0.495932
  C      -1.112870      0.709977      0.668923
  C      -2.297712      1.629306      0.403045
  C      -1.545043     -1.266561     -0.826656
  C      -1.037582     -2.542668     -0.174173
  H       2.105666      1.045235      2.239719
  H       3.659820      1.264287      1.382845
  H       3.394998     -0.177246      2.399239
  H       3.159703     -0.776602     -0.018725
  H       1.602635     -0.964542      0.832227
  H      -1.334450      0.019276      1.499049
  H      -0.241851      1.301202      0.988289
  H      -3.189103      1.061842      0.095882
  H      -2.065153      2.358142     -0.387801
  H      -2.553343      2.186611      1.316325
  H      -2.574490     -1.046403     -0.507235
  H      -1.577555     -1.383249     -1.919081
  H      -0.965699     -2.429145      0.918323
  H      -0.039986     -2.796319     -0.562542
  H      -1.715933     -3.382005     -0.387723
27
Coordinates from ORCA-job opt E -876.482767131882
  C       2.911089      0.524328      1.703844
  C       2.367722     -0.235029      0.518509
  O       1.774572      0.710359     -0.402083
  P       0.604715      0.250232     -1.388547
  O       0.919183     -0.748903     -2.438789
  C       0.341989      1.885443     -2.130789
  N       0.131755      2.895319     -2.653214
  N      -0.724350     -0.093842     -0.495766
  C      -1.112287      0.709945      0.669097
  C      -2.296967      1.629512      0.403264
  C      -1.545034     -1.266530     -0.826383
  C      -1.037686     -2.542750     -0.174033
  H       2.103394      1.044206      2.239516
  H       3.658097      1.265126      1.384118
  H       3.393710     -0.177157      2.399549
  H       3.161090     -0.775419     -0.019028
  H       1.603515     -0.965349      0.830586
  H      -1.333935      0.019305      1.499252
  H      -0.241105      1.301002      0.988362
  H      -3.188453      1.062217      0.096056
  H      -2.064277      2.358348     -0.387546
  H      -2.552518      2.186824      1.316570
  H      -2.574399     -1.046263     -0.506764
  H      -1.577767     -1.383115     -1.918820
  H      -0.965680     -2.429309      0.918465
  H      -0.040172     -2.796544     -0.562518
  H      -1.716202     -3.381955     -0.387571
27
Coordinates from ORCA-job opt E -876.482773987508
  C       2.911234      0.524417      1.703847
  C       2.367748     -0.235007      0.518610
  O       1.774540      0.710337     -0.401986
  P       0.604725      0.250192     -1.388490
  O       0.919211     -0.748975     -2.438694
  C       0.342068      1.885373     -2.130833
  N       0.131926      2.895213     -2.653360
  N      -0.724402     -0.093839     -0.495772
  C      -1.112347      0.709924      0.669106
  C      -2.297039      1.629482      0.403314
  C      -1.545089     -1.266504     -0.826436
  C      -1.037760     -2.542759     -0.174140
  H       2.103597      1.044301      2.239599
  H       3.658186      1.265217      1.383994
  H       3.393961     -0.177029      2.399515
  H       3.161064     -0.775441     -0.018957
  H       1.603561     -0.965302      0.830792
  H      -1.333982      0.019264      1.499249
  H      -0.241179      1.300986      0.988382
  H      -3.188528      1.062187      0.096119
  H      -2.064372      2.358336     -0.387487
  H      -2.552567      2.186772      1.316635
  H      -2.574447     -1.046217     -0.506811
  H      -1.577825     -1.383066     -1.918873
  H      -0.965741     -2.429361      0.918361
  H      -0.040256     -2.796552     -0.562646
  H      -1.716288     -3.381947     -0.387707
27
Coordinates from ORCA-job opt E -876.482768012160
  C       2.914820      0.524463      1.703210
  C       2.366599     -0.235283      0.520369
  O       1.773838      0.710320     -0.400237
  P       0.604752      0.250546     -1.387807
  O       0.919836     -0.748384     -2.438042
  C       0.342835      1.885902     -2.129968
  N       0.133097      2.896131     -2.651895
  N      -0.725235     -0.093494     -0.496219
  C      -1.113897      0.710023      0.668638
  C      -2.299056      1.628911      0.402735
  C      -1.545123     -1.266575     -0.827175
  C      -1.037486     -2.542541     -0.174546
  H       2.109772      1.047139      2.240122
  H       3.662866      1.262933      1.380508
  H       3.397452     -0.177235      2.398693
  H       3.157270     -0.778679     -0.018098
  H       1.601138     -0.963082      0.835279
  H      -1.335317      0.019202      1.498712
  H      -0.243165      1.301563      0.988159
  H      -3.190266      1.061132      0.095637
  H      -2.066765      2.357787     -0.388148
  H      -2.554836      2.186164      1.315996
  H      -2.574699     -1.046603     -0.508061
  H      -1.577285     -1.383381     -1.919588
  H      -0.965852     -2.428964      0.917959
  H      -0.039740     -2.795913     -0.562704
  H      -1.715554     -3.382081     -0.388193
27
Coordinates from ORCA-job opt E -876.482769507414
  C       2.913283      0.524473      1.703497
  C       2.367120     -0.235138      0.519616
  O       1.774129      0.710345     -0.400972
  P       0.604745      0.250373     -1.388083
  O       0.919594     -0.748683     -2.438278
  C       0.342507      1.885631     -2.130369
  N       0.132572      2.895674     -2.652582
  N      -0.724877     -0.093653     -0.496017
  C      -1.113228      0.709963      0.668853
  C      -2.298168      1.629162      0.402999
  C      -1.545129     -1.266537     -0.826865
  C      -1.037640     -2.542645     -0.174403
  H       2.107104      1.045906      2.239929
  H       3.660829      1.263982      1.382032
  H       3.395987     -0.177111      2.399045
  H       3.158945     -0.777227     -0.018478
  H       1.602231     -0.964041      0.833346
  H      -1.334759      0.019205      1.498947
  H      -0.242302      1.301280      0.988280
  H      -3.189507      1.061610      0.095853
  H      -2.065699      2.358031     -0.387842
  H      -2.553833      2.186426      1.316290
  H      -2.574608     -1.046420     -0.507526
  H      -1.577542     -1.383219     -1.919291
  H      -0.965826     -2.429158      0.918101
  H      -0.040007     -2.796210     -0.562725
  H      -1.715922     -3.382019     -0.388023
27
Coordinates from ORCA-job opt E -876.482780015021
  C       2.903777      0.524639      1.705206
  C       2.370199     -0.234272      0.515138
  O       1.775941      0.710365     -0.405536
  P       0.604709      0.249301     -1.389860
  O       0.918002     -0.750494     -2.439837
  C       0.340588      1.883986     -2.132914
  N       0.129705      2.892872     -2.657000
  N      -0.722699     -0.094615     -0.494825
  C      -1.109078      0.709566      0.670202
  C      -2.292709      1.630657      0.404785
  C      -1.545154     -1.266298     -0.825013
  C      -1.038566     -2.543298     -0.173617
  H       2.090748      1.038631      2.238513
  H       3.648272      1.270345      1.391127
  H       3.386873     -0.176137      2.401288
  H       3.169026     -0.768499     -0.020485
  H       1.608795     -0.969800      0.821738
  H      -1.331224      0.019154      1.500399
  H      -0.236958      1.299513      0.989046
  H      -3.184853      1.064503      0.097364
  H      -2.059214      2.359533     -0.385770
  H      -2.547610      2.187943      1.318308
  H      -2.574006     -1.045267     -0.504261
  H      -1.579144     -1.382228     -1.917502
  H      -0.965657     -2.430438      0.918889
  H      -0.041615     -2.798002     -0.562956
  H      -1.718149     -3.381662     -0.387092
27
Coordinates from ORCA-job opt E -876.482766189289
  C       2.912072      0.524420      1.703712
  C       2.367510     -0.235054      0.519005
  O       1.774368      0.710361     -0.401561
  P       0.604737      0.250268     -1.388319
  O       0.919386     -0.748865     -2.438501
  C       0.342239      1.885470     -2.130659
  N       0.132131      2.895397     -2.653029
  N      -0.724595     -0.093761     -0.495867
  C      -1.112716      0.709945      0.669005
  C      -2.297501      1.629360      0.403171
  C      -1.545102     -1.266517     -0.826608
  C      -1.037713     -2.542708     -0.174235
  H       2.105019      1.044907      2.239752
  H       3.659256      1.264715      1.383224
  H       3.394798     -0.177095      2.399313
  H       3.160228     -0.776133     -0.018796
  H       1.603052     -0.964809      0.831796
  H      -1.334323      0.019245      1.499124
  H      -0.241650      1.301108      0.988354
  H      -3.188931      1.061965      0.095996
  H      -2.064903      2.358212     -0.387650
  H      -2.553086      2.186648      1.316475
  H      -2.574510     -1.046292     -0.507111
  H      -1.577696     -1.383137     -1.919039
  H      -0.965767     -2.429264      0.918266
  H      -0.040160     -2.796415     -0.562672
  H      -1.716146     -3.381971     -0.387811
27
Coordinates from ORCA-job opt E -876.482772530328
  C       2.912652      0.524459      1.703599
  C       2.367242     -0.235097      0.519334
  O       1.774255      0.710353     -0.401295
  P       0.604743      0.250341     -1.388234
  O       0.919483     -0.748731     -2.438446
  C       0.342352      1.885574     -2.130530
  N       0.132295      2.895551     -2.652823
  N      -0.724720     -0.093711     -0.495962
  C      -1.112942      0.709932      0.668929
  C      -2.297797      1.629255      0.403114
  C      -1.545091     -1.266536     -0.826755
  C      -1.037650     -2.542675     -0.174317
  H       2.106075      1.045533      2.239783
  H       3.660102      1.264266      1.382599
  H       3.395275     -0.177101      2.399227
  H       3.159476     -0.776771     -0.018578
  H       1.602508     -0.964351      0.832623
  H      -1.334511      0.019189      1.499023
  H      -0.241939      1.301158      0.988324
  H      -3.189194      1.061796      0.095962
  H      -2.065268      2.358120     -0.387713
  H      -2.553401      2.186525      1.316420
  H      -2.574540     -1.046365     -0.507356
  H      -1.577576     -1.383205     -1.919181
  H      -0.965766     -2.429194      0.918183
  H      -0.040057     -2.796312     -0.562697
  H      -1.716004     -3.382001     -0.387899
27
Coordinates from ORCA-job opt E -876.482772007650
  C       2.912717      0.524433      1.703576
  C       2.367206     -0.235119      0.519356
  O       1.774248      0.710350     -0.401272
  P       0.604743      0.250359     -1.388230
  O       0.919490     -0.748693     -2.438459
  C       0.342359      1.885611     -2.130482
  N       0.132269      2.895618     -2.652703
  N      -0.724730     -0.093701     -0.495974
  C      -1.112974      0.709943      0.668908
  C      -2.297839      1.629249      0.403073
  C      -1.545074     -1.266545     -0.826760
  C      -1.037620     -2.542664     -0.174294
  H       2.106194      1.045575      2.239777
  H       3.660201      1.264182      1.382524
  H       3.395321     -0.177139      2.399203
  H       3.159380     -0.776864     -0.018572
  H       1.602431     -0.964310      0.832694
  H      -1.334544      0.019202      1.499004
  H      -0.241981      1.301181      0.988313
  H      -3.189225      1.061776      0.095914
  H      -2.065309      2.358112     -0.387756
  H      -2.553462      2.186521      1.316373
  H      -2.574531     -1.046386     -0.507377
  H      -1.577543     -1.383231     -1.919185
  H      -0.965746     -2.429159      0.918204
  H      -0.040019     -2.796295     -0.562660
  H      -1.715961     -3.382004     -0.387862
27
Coordinates from ORCA-job opt E -876.482771070977
  C       2.912983      0.524375      1.703508
  C       2.367085     -0.235173      0.519465
  O       1.774206      0.710347     -0.401160
  P       0.604740      0.250418     -1.388197
  O       0.919522     -0.748583     -2.438465
  C       0.342390      1.885716     -2.130351
  N       0.132267      2.895795     -2.652420
  N      -0.724781     -0.093668     -0.496014
  C      -1.113095      0.709975      0.668848
  C      -2.298002      1.629213      0.402969
  C      -1.545041     -1.266569     -0.826796
  C      -1.037543     -2.542635     -0.174259
  H       2.106675      1.045773      2.239783
  H       3.660595      1.263906      1.382249
  H       3.395531     -0.177240      2.399132
  H       3.159035     -0.777177     -0.018530
  H       1.602177     -0.964137      0.833006
  H      -1.334651      0.019236      1.498949
  H      -0.242141      1.301262      0.988268
  H      -3.189354      1.061686      0.095812
  H      -2.065496      2.358065     -0.387876
  H      -2.553666      2.186497      1.316250
  H      -2.574523     -1.046450     -0.507467
  H      -1.577452     -1.383302     -1.919216
  H      -0.965714     -2.429081      0.918237
  H      -0.039915     -2.796229     -0.562579
  H      -1.715832     -3.382021     -0.387812
27
Coordinates from ORCA-job opt E -876.482771429271
  C       2.915675      0.524056      1.702905
  C       2.366076     -0.235572      0.520634
  O       1.773768      0.710311     -0.399974
  P       0.604711      0.250861     -1.387756
  O       0.919847     -0.747716     -2.438310
  C       0.342687      1.886524     -2.129166
  N       0.132342      2.897170     -2.650032
  N      -0.725311     -0.093422     -0.496313
  C      -1.114288      0.710180      0.668369
  C      -2.299506      1.628863      0.402043
  C      -1.544860     -1.266753     -0.827176
  C      -1.037031     -2.542449     -0.174176
  H       2.111417      1.047807      2.239955
  H       3.664365      1.261593      1.379566
  H       3.397856     -0.177879      2.398457
  H       3.155913     -0.779976     -0.018038
  H       1.600024     -0.962459      0.836205
  H      -1.335793      0.019439      1.498485
  H      -0.243685      1.301861      0.987991
  H      -3.190574      1.060906      0.094863
  H      -2.067131      2.357604     -0.388943
  H      -2.555552      2.186272      1.315132
  H      -2.574546     -1.046960     -0.508296
  H      -1.576770     -1.383781     -1.919571
  H      -0.965597     -2.428603      0.918312
  H      -0.039166     -2.795683     -0.562115
  H      -1.714871     -3.382195     -0.387719
27
Coordinates from ORCA-job opt E -876.482773963484
  C       2.913314      0.524336      1.703440
  C       2.366987     -0.235219      0.519600
  O       1.774153      0.710342     -0.401010
  P       0.604734      0.250467     -1.388133
  O       0.919556     -0.748484     -2.438433
  C       0.342420      1.885810     -2.130198
  N       0.132272      2.895952     -2.652132
  N      -0.724847     -0.093642     -0.496038
  C      -1.113245      0.710005      0.668794
  C      -2.298186      1.629176      0.402845
  C      -1.545027     -1.266591     -0.826833
  C      -1.037491     -2.542619     -0.174252
  H       2.107242      1.045989      2.239820
  H       3.661036      1.263651      1.381939
  H       3.395839     -0.177315      2.399043
  H       3.158696     -0.777486     -0.018487
  H       1.601960     -0.963957      0.833377
  H      -1.334800      0.019272      1.498901
  H      -0.242334      1.301340      0.988237
  H      -3.189501      1.061596      0.095679
  H      -2.065686      2.358010     -0.388018
  H      -2.553905      2.186480      1.316097
  H      -2.574532     -1.046510     -0.507553
  H      -1.577383     -1.383350     -1.919252
  H      -0.965712     -2.429040      0.918244
  H      -0.039835     -2.796167     -0.562527
  H      -1.715726     -3.382045     -0.387815
27
Coordinates from ORCA-job opt E -876.482772747524
  C       2.912612      0.524370      1.703585
  C       2.367244     -0.235136      0.519270
  O       1.774272      0.710352     -0.401328
  P       0.604735      0.250371     -1.388255
  O       0.919459     -0.748673     -2.438498
  C       0.342315      1.885641     -2.130457
  N       0.132173      2.895671     -2.652614
  N      -0.724706     -0.093701     -0.495962
  C      -1.112945      0.709964      0.668902
  C      -2.297799      1.629274      0.403032
  C      -1.545054     -1.266553     -0.826717
  C      -1.037591     -2.542651     -0.174219
  H       2.106011      1.045415      2.239763
  H       3.660068      1.264196      1.382644
  H       3.395214     -0.177216      2.399201
  H       3.159496     -0.776776     -0.018649
  H       1.602507     -0.964410      0.832506
  H      -1.334526      0.019239      1.499008
  H      -0.241947      1.301200      0.988298
  H      -3.189182      1.061799      0.095867
  H      -2.065250      2.358120     -0.387808
  H      -2.553435      2.186566      1.316316
  H      -2.574511     -1.046396     -0.507334
  H      -1.577524     -1.383258     -1.919141
  H      -0.965725     -2.429123      0.918277
  H      -0.039988     -2.796284     -0.562575
  H      -1.715924     -3.382000     -0.387775
27
Coordinates from ORCA-job opt E -876.482771616573
  C       2.911843      0.524448      1.703752
  C       2.367548     -0.235036      0.518928
  O       1.774409      0.710347     -0.401673
  P       0.604745      0.250242     -1.388380
  O       0.919351     -0.748915     -2.438554
  C       0.342232      1.885418     -2.130767
  N       0.132131      2.895305     -2.653221
  N      -0.724551     -0.093770     -0.495869
  C      -1.112607      0.709920      0.669033
  C      -2.297379      1.629373      0.403270
  C      -1.545103     -1.266498     -0.826595
  C      -1.037735     -2.542704     -0.174233
  H       2.104650      1.044806      2.239709
  H       3.658978      1.264855      1.383408
  H       3.394561     -0.177040      2.399385
  H       3.160413     -0.775977     -0.018792
  H       1.603148     -0.964911      0.831578
  H      -1.334198      0.019205      1.499144
  H      -0.241514      1.301054      0.988362
  H      -3.188837      1.062007      0.096115
  H      -2.064797      2.358241     -0.387540
  H      -2.552914      2.186643      1.316598
  H      -2.574499     -1.046248     -0.507074
  H      -1.577724     -1.383117     -1.919026
  H      -0.965765     -2.429266      0.918266
  H      -0.040196     -2.796434     -0.562692
  H      -1.716193     -3.381949     -0.387797
27
Coordinates from ORCA-job opt E -876.482773061405
  C       2.911505      0.524494      1.703831
  C       2.367677     -0.234989      0.518789
  O       1.774475      0.710340     -0.401830
  P       0.604753      0.250178     -1.388439
  O       0.919303     -0.749027     -2.438584
  C       0.342190      1.885312     -2.130903
  N       0.132081      2.895144     -2.653461
  N      -0.724478     -0.093805     -0.495828
  C      -1.112448      0.709902      0.669088
  C      -2.297186      1.629415      0.403375
  C      -1.545125     -1.266475     -0.826543
  C      -1.037803     -2.542737     -0.174253
  H       2.104054      1.044561      2.239683
  H       3.658506      1.265147      1.383742
  H       3.394267     -0.176950      2.399478
  H       3.160809     -0.775636     -0.018834
  H       1.603418     -0.965119      0.831186
  H      -1.334036      0.019199      1.499209
  H      -0.241313      1.300997      0.988377
  H      -3.188682      1.062097      0.096245
  H      -2.064596      2.358280     -0.387436
  H      -2.552662      2.186689      1.316717
  H      -2.574492     -1.046177     -0.506960
  H      -1.577815     -1.383051     -1.918977
  H      -0.965777     -2.429345      0.918248
  H      -0.040298     -2.796516     -0.562768
  H      -1.716327     -3.381930     -0.387820
27
Coordinates from ORCA-job opt E -876.482771045855
  C       2.911347      0.524536      1.703870
  C       2.367728     -0.234963      0.518741
  O       1.774515      0.710329     -0.401908
  P       0.604766      0.250140     -1.388468
  O       0.919286     -0.749092     -2.438602
  C       0.342183      1.885247     -2.130985
  N       0.132058      2.895052     -2.653586
  N      -0.724440     -0.093823     -0.495816
  C      -1.112365      0.709888      0.669114
  C      -2.297095      1.629425      0.403445
  C      -1.545135     -1.266457     -0.826532
  C      -1.037842     -2.542752     -0.174282
  H       2.103786      1.044491      2.239662
  H       3.658297      1.265284      1.383885
  H       3.394120     -0.176881      2.399537
  H       3.160976     -0.775499     -0.018821
  H       1.603519     -0.965193      0.831031
  H      -1.333942      0.019186      1.499239
  H      -0.241213      1.300967      0.988380
  H      -3.188614      1.062128      0.096343
  H      -2.064516      2.358289     -0.387371
  H      -2.552527      2.186700      1.316799
  H      -2.574485     -1.046126     -0.506917
  H      -1.577862     -1.383013     -1.918967
  H      -0.965775     -2.429382      0.918218
  H      -0.040362     -2.796568     -0.562833
  H      -1.716408     -3.381913     -0.387843
27
Coordinates from ORCA-job opt E -876.482773007101
  C       2.911275      0.524649      1.703902
  C       2.367731     -0.234938      0.518791
  O       1.774572      0.710282     -0.401965
  P       0.604808      0.250075     -1.388496
  O       0.919291     -0.749178     -2.438628
  C       0.342214      1.885151     -2.131068
  N       0.132017      2.894955     -2.653641
  N      -0.724401     -0.093847     -0.495826
  C      -1.112282      0.709863      0.669124
  C      -2.297032      1.629398      0.403541
  C      -1.545153     -1.266427     -0.826567
  C      -1.037908     -2.542779     -0.174387
  H       2.103682      1.044626      2.239625
  H       3.658232      1.265386      1.383903
  H       3.394030     -0.176720      2.399631
  H       3.161018     -0.775505     -0.018678
  H       1.603507     -0.965155      0.831074
  H      -1.333810      0.019161      1.499262
  H      -0.241125      1.300951      0.988347
  H      -3.188583      1.062106      0.096524
  H      -2.064514      2.358248     -0.387304
  H      -2.552379      2.186685      1.316911
  H      -2.574480     -1.046043     -0.506914
  H      -1.577923     -1.382956     -1.919004
  H      -0.965768     -2.429446      0.918113
  H      -0.040471     -2.796659     -0.563004
  H      -1.716548     -3.381884     -0.387930
27
Coordinates from ORCA-job opt E -876.482772755837
  C       2.911547      0.525742      1.704004
  C       2.367336     -0.234825      0.519796
  O       1.775003      0.709753     -0.402120
  P       0.605248      0.249573     -1.388634
  O       0.919466     -0.749749     -2.438866
  C       0.342707      1.884455     -2.131542
  N       0.131696      2.894441     -2.653403
  N      -0.724194     -0.093990     -0.496070
  C      -1.111846      0.709670      0.669045
  C      -2.296962      1.628952      0.404253
  C      -1.545268     -1.266172     -0.827103
  C      -1.038400     -2.542985     -0.175489
  H       2.104437      1.046920      2.239264
  H       3.659026      1.265544      1.383034
  H       3.393927     -0.175232      2.400398
  H       3.160199     -0.776712     -0.016929
  H       1.602464     -0.964066      0.832814
  H      -1.332806      0.018943      1.499321
  H      -0.240785      1.301018      0.987891
  H      -3.188748      1.061537      0.098157
  H      -2.065184      2.357625     -0.386956
  H      -2.551522      2.186403      1.317730
  H      -2.574431     -1.045349     -0.507231
  H      -1.578301     -1.382528     -1.919547
  H      -0.965614     -2.429913      0.917000
  H      -0.041338     -2.797414     -0.564660
  H      -1.717655     -3.381640     -0.388823
27
Coordinates from ORCA-job opt E -876.482770541354
  C       2.911394      0.524734      1.703889
  C       2.367644     -0.234957      0.518938
  O       1.774599      0.710211     -0.401943
  P       0.604855      0.250046     -1.388513
  O       0.919312     -0.749194     -2.438670
  C       0.342294      1.885122     -2.131085
  N       0.131981      2.894984     -2.653497
  N      -0.724405     -0.093840     -0.495883
  C      -1.112282      0.709856      0.669084
  C      -2.297091      1.629334      0.403582
  C      -1.545151     -1.266407     -0.826644
  C      -1.037925     -2.542774     -0.174477
  H       2.103927      1.044921      2.239594
  H       3.658444      1.265302      1.383711
  H       3.394101     -0.176606      2.399682
  H       3.160812     -0.775755     -0.018472
  H       1.603308     -0.964996      0.831370
  H      -1.333735      0.019145      1.499238
  H      -0.241151      1.300993      0.988271
  H      -3.188659      1.062008      0.096678
  H      -2.064672      2.358161     -0.387313
  H      -2.552355      2.186643      1.316959
  H      -2.574473     -1.045993     -0.506998
  H      -1.577917     -1.382954     -1.919078
  H      -0.965738     -2.429434      0.918019
  H      -0.040514     -2.796695     -0.563128
  H      -1.716604     -3.381856     -0.387980
27
Coordinates from ORCA-job opt E -876.482771695220
  C       2.911598      0.524518      1.703829
  C       2.367635     -0.235024      0.518884
  O       1.774506      0.710275     -0.401808
  P       0.604801      0.250150     -1.388452
  O       0.919322     -0.749050     -2.438620
  C       0.342281      1.885279     -2.130931
  N       0.132027      2.895184     -2.653283
  N      -0.724494     -0.093780     -0.495891
  C      -1.112473      0.709930      0.669033
  C      -2.297277      1.629377      0.403397
  C      -1.545109     -1.266455     -0.826608
  C      -1.037793     -2.542710     -0.174293
  H       2.104229      1.044692      2.239698
  H       3.658636      1.265082      1.383622
  H       3.394365     -0.176915      2.399485
  H       3.160691     -0.775813     -0.018700
  H       1.603303     -0.965046      0.831362
  H      -1.333983      0.019229      1.499179
  H      -0.241371      1.301083      0.988283
  H      -3.188790      1.062019      0.096386
  H      -2.064790      2.358213     -0.387469
  H      -2.552672      2.186677      1.316745
  H      -2.574475     -1.046123     -0.507046
  H      -1.577786     -1.383087     -1.919036
  H      -0.965722     -2.429276      0.918200
  H      -0.040313     -2.796536     -0.562832
  H      -1.716345     -3.381893     -0.387799
27
Coordinates from ORCA-job opt E -876.482772313814
  C       2.912384      0.523884      1.703619
  C       2.367484     -0.235243      0.518849
  O       1.774207      0.710451     -0.401342
  P       0.604645      0.250503     -1.388270
  O       0.919361     -0.748521     -2.438522
  C       0.342268      1.885810     -2.130417
  N       0.132193      2.895873     -2.652534
  N      -0.724793     -0.093585     -0.495968
  C      -1.113099      0.710149      0.668840
  C      -2.297925      1.629449      0.402830
  C      -1.544962     -1.266611     -0.826557
  C      -1.037369     -2.542505     -0.173763
  H       2.105491      1.044265      2.240003
  H       3.659522      1.264234      1.383144
  H       3.395262     -0.177851      2.398894
  H       3.160029     -0.776269     -0.019254
  H       1.603030     -0.965006      0.831637
  H      -1.334744      0.019464      1.498963
  H      -0.242115      1.301383      0.988275
  H      -3.189260      1.061960      0.095548
  H      -2.065280      2.358294     -0.387980
  H      -2.553686      2.186736      1.316084
  H      -2.574477     -1.046521     -0.507305
  H      -1.577316     -1.383540     -1.918958
  H      -0.965606     -2.428739      0.918714
  H      -0.039694     -2.796059     -0.561987
  H      -1.715547     -3.382006     -0.387209
27
Coordinates from ORCA-job opt E -876.482770636320
  C       2.912336      0.524042      1.703642
  C       2.367446     -0.235213      0.518944
  O       1.774283      0.710388     -0.401414
  P       0.604699      0.250437     -1.388307
  O       0.919366     -0.748607     -2.438564
  C       0.342311      1.885716     -2.130498
  N       0.132181      2.895773     -2.652604
  N      -0.724734     -0.093615     -0.495978
  C      -1.112990      0.710109      0.668853
  C      -2.297862      1.629384      0.402947
  C      -1.544983     -1.266568     -0.826600
  C      -1.037451     -2.542541     -0.173909
  H       2.105455      1.044557      2.239913
  H       3.659546      1.264291      1.383099
  H       3.395129     -0.177632      2.399037
  H       3.159988     -0.776363     -0.019036
  H       1.602930     -0.964890      0.831781
  H      -1.334560      0.019418      1.498990
  H      -0.242007      1.301370      0.988233
  H      -3.189219      1.061881      0.095757
  H      -2.065306      2.358228     -0.387890
  H      -2.553540      2.186673      1.316221
  H      -2.574465     -1.046418     -0.507286
  H      -1.577402     -1.383443     -1.919005
  H      -0.965614     -2.428847      0.918571
  H      -0.039821     -2.796160     -0.562206
  H      -1.715715     -3.381972     -0.387357
27
Coordinates from ORCA-job opt E -876.482768335970
  C       2.911498      0.524701      1.703831
  C       2.367516     -0.235021      0.519008
  O       1.774610      0.710169     -0.401941
  P       0.604857      0.250096     -1.388549
  O       0.919284     -0.749092     -2.438755
  C       0.342341      1.885236     -2.131006
  N       0.132041      2.895155     -2.653310
  N      -0.724415     -0.093807     -0.495930
  C      -1.112316      0.709878      0.669040
  C      -2.297183      1.629285      0.403548
  C      -1.545107     -1.266421     -0.826664
  C      -1.037845     -2.542742     -0.174434
  H       2.104172      1.045133      2.239510
  H       3.658691      1.265066      1.383518
  H       3.394087     -0.176655      2.399689
  H       3.160534     -0.776048     -0.018388
  H       1.603046     -0.964864      0.831575
  H      -1.333719      0.019159      1.499201
  H      -0.241216      1.301068      0.988215
  H      -3.188723      1.061902      0.096671
  H      -2.064826      2.358119     -0.387358
  H      -2.552463      2.186587      1.316925
  H      -2.574444     -1.046033     -0.507052
  H      -1.577838     -1.383013     -1.919093
  H      -0.965681     -2.429361      0.918058
  H      -0.040415     -2.796636     -0.563061
  H      -1.716487     -3.381862     -0.387913
27
Coordinates from ORCA-job opt E -876.482773414460
  C       2.911582      0.524619      1.703801
  C       2.367501     -0.235052      0.518992
  O       1.774570      0.710188     -0.401892
  P       0.604829      0.250141     -1.388533
  O       0.919273     -0.749021     -2.438752
  C       0.342335      1.885314     -2.130929
  N       0.132073      2.895257     -2.653203
  N      -0.724456     -0.093784     -0.495941
  C      -1.112394      0.709901      0.669015
  C      -2.297252      1.629301      0.403469
  C      -1.545091     -1.266447     -0.826650
  C      -1.037787     -2.542718     -0.174354
  H       2.104304      1.045067      2.239537
  H       3.658784      1.264966      1.383467
  H       3.394182     -0.176771      2.399617
  H       3.160466     -0.776092     -0.018472
  H       1.603027     -0.964875      0.831589
  H      -1.333824      0.019180      1.499166
  H      -0.241301      1.301090      0.988221
  H      -3.188770      1.061911      0.096540
  H      -2.064861      2.358146     -0.387417
  H      -2.552588      2.186593      1.316837
  H      -2.574446     -1.046096     -0.507072
  H      -1.577785     -1.383075     -1.919075
  H      -0.965671     -2.429292      0.918137
  H      -0.040327     -2.796568     -0.562935
  H      -1.716373     -3.381883     -0.387830
27
Coordinates from ORCA-job opt E -876.482770549634
  C       2.912800      0.523878      1.703524
  C       2.367275     -0.235323      0.519084
  O       1.774204      0.710390     -0.401214
  P       0.604678      0.250562     -1.388245
  O       0.919392     -0.748390     -2.438569
  C       0.342392      1.885932     -2.130263
  N       0.132322      2.896096     -2.652182
  N      -0.724848     -0.093529     -0.496050
  C      -1.113239      0.710199      0.668741
  C      -2.298209      1.629323      0.402754
  C      -1.544923     -1.266608     -0.826638
  C      -1.037292     -2.542463     -0.173791
  H       2.106271      1.044770      2.239957
  H       3.660199      1.263802      1.382669
  H       3.395527     -0.177892      2.398868
  H       3.159452     -0.776854     -0.019048
  H       1.602564     -0.964663      0.832231
  H      -1.334769      0.019512      1.498894
  H      -0.242337      1.301565      0.988144
  H      -3.189479      1.061700      0.095536
  H      -2.065704      2.358174     -0.388090
  H      -2.554004      2.186604      1.316000
  H      -2.574455     -1.046538     -0.507431
  H      -1.577232     -1.383594     -1.919032
  H      -0.965555     -2.428664      0.918685
  H      -0.039600     -2.795992     -0.561987
  H      -1.715432     -3.381998     -0.387213
27
Coordinates from ORCA-job opt E -876.482770727159
  C       2.912352      0.524182      1.703628
  C       2.367356     -0.235211      0.519065
  O       1.774338      0.710315     -0.401465
  P       0.604732      0.250401     -1.388349
  O       0.919350     -0.748626     -2.438637
  C       0.342352      1.885697     -2.130499
  N       0.132214      2.895772     -2.652569
  N      -0.724698     -0.093639     -0.496004
  C      -1.112915      0.710070      0.668849
  C      -2.297827      1.629316      0.403022
  C      -1.544995     -1.266552     -0.826645
  C      -1.037494     -2.542574     -0.174022
  H       2.105547      1.044926      2.239789
  H       3.659684      1.264251      1.382954
  H       3.395022     -0.177436      2.399165
  H       3.159823     -0.776571     -0.018814
  H       1.602733     -0.964723      0.832023
  H      -1.334422      0.019369      1.498995
  H      -0.241933      1.301355      0.988186
  H      -3.189194      1.061794      0.095900
  H      -2.065348      2.358167     -0.387832
  H      -2.553451      2.186599      1.316313
  H      -2.574457     -1.046377     -0.507288
  H      -1.577458     -1.383386     -1.919052
  H      -0.965608     -2.428929      0.918461
  H      -0.039892     -2.796228     -0.562371
  H      -1.715811     -3.381963     -0.387470
27
Coordinates from ORCA-job opt E -876.482769046704
  C       2.911369      0.524838      1.703849
  C       2.367558     -0.234985      0.519013
  O       1.774630      0.710120     -0.402012
  P       0.604851      0.250029     -1.388577
  O       0.919243     -0.749168     -2.438779
  C       0.342320      1.885172     -2.131019
  N       0.132055      2.895068     -2.653389
  N      -0.724388     -0.093864     -0.495914
  C      -1.112221      0.709809      0.669076
  C      -2.297030      1.629299      0.403617
  C      -1.545159     -1.266425     -0.826662
  C      -1.037932     -2.542801     -0.174521
  H       2.103944      1.045216      2.239435
  H       3.658518      1.265263      1.383573
  H       3.393958     -0.176435      2.399789
  H       3.160675     -0.775941     -0.018315
  H       1.603145     -0.964897      0.831547
  H      -1.333651      0.019081      1.499220
  H      -0.241072      1.300937      0.988245
  H      -3.188611      1.061981      0.096737
  H      -2.064641      2.358147     -0.387270
  H      -2.552261      2.186596      1.317011
  H      -2.574471     -1.046029     -0.506980
  H      -1.577953     -1.382936     -1.919100
  H      -0.965753     -2.429492      0.917978
  H      -0.040516     -2.796702     -0.563175
  H      -1.716609     -3.381880     -0.388044
27
Coordinates from ORCA-job opt E -876.482774791680
  C       2.911082      0.524981      1.703911
  C       2.367639     -0.234925      0.518959
  O       1.774707      0.710084     -0.402166
  P       0.604877      0.249934     -1.388637
  O       0.919209     -0.749317     -2.438806
  C       0.342294      1.885035     -2.131165
  N       0.131972      2.894886     -2.653599
  N      -0.724305     -0.093920     -0.495879
  C      -1.112046      0.709745      0.669146
  C      -2.296808      1.629316      0.403754
  C      -1.545196     -1.266393     -0.826651
  C      -1.038035     -2.542854     -0.174620
  H       2.103461      1.045203      2.239353
  H       3.658158      1.265545      1.383791
  H       3.393662     -0.176215      2.399936
  H       3.160957     -0.775713     -0.018240
  H       1.603309     -0.964989      0.831337
  H      -1.333490      0.019007      1.499280
  H      -0.240852      1.300815      0.988298
  H      -3.188440      1.062064      0.096902
  H      -2.064406      2.358164     -0.387128
  H      -2.551964      2.186609      1.317173
  H      -2.574472     -1.045934     -0.506890
  H      -1.578073     -1.382829     -1.919094
  H      -0.965775     -2.429616      0.917881
  H      -0.040665     -2.796823     -0.563356
  H      -1.716802     -3.381858     -0.388155
27
Coordinates from ORCA-job opt E -876.482775422714
  C       2.910425      0.525283      1.704052
  C       2.367796     -0.234793      0.518835
  O       1.774866      0.710008     -0.402511
  P       0.604928      0.249742     -1.388783
  O       0.919134     -0.749622     -2.438890
  C       0.342233      1.884742     -2.131495
  N       0.131804      2.894488     -2.654094
  N      -0.724125     -0.094039     -0.495823
  C      -1.111646      0.709600      0.669285
  C      -2.296311      1.629351      0.404074
  C      -1.545271     -1.266328     -0.826631
  C      -1.038252     -2.542960     -0.174823
  H       2.102371      1.045163      2.239173
  H       3.657343      1.266155      1.384282
  H       3.392982     -0.175745      2.400262
  H       3.161563     -0.775218     -0.018066
  H       1.603643     -0.965194      0.830860
  H      -1.333094      0.018839      1.499397
  H      -0.240345      1.300545      0.988377
  H      -3.188064      1.062246      0.097300
  H      -2.063901      2.358212     -0.386795
  H      -2.551278      2.186628      1.317556
  H      -2.574468     -1.045741     -0.506708
  H      -1.578318     -1.382616     -1.919087
  H      -0.965827     -2.429865      0.917682
  H      -0.040981     -2.797071     -0.563721
  H      -1.717208     -3.381808     -0.388374
27
Coordinates from ORCA-job opt E -876.482773036011
  C       2.910859      0.524967      1.703955
  C       2.367710     -0.234898      0.518842
  O       1.774724      0.710102     -0.402262
  P       0.604867      0.249919     -1.388683
  O       0.919178     -0.749365     -2.438830
  C       0.342239      1.884987     -2.131258
  N       0.131867      2.894814     -2.653722
  N      -0.724271     -0.093933     -0.495868
  C      -1.111965      0.709720      0.669177
  C      -2.296669      1.629368      0.403798
  C      -1.545193     -1.266391     -0.826620
  C      -1.038044     -2.542851     -0.174577
  H       2.103074      1.044983      2.239348
  H       3.657846      1.265701      1.384023
  H       3.393467     -0.176224      2.399967
  H       3.161196     -0.775483     -0.018315
  H       1.603474     -0.965138      0.831043
  H      -1.333453      0.018970      1.499287
  H      -0.240737      1.300730      0.988349
  H      -3.188327      1.062177      0.096906
  H      -2.064208      2.358233     -0.387051
  H      -2.551816      2.186637      1.317234
  H      -2.574461     -1.045908     -0.506852
  H      -1.578082     -1.382837     -1.919061
  H      -0.965761     -2.429591      0.917920
  H      -0.040686     -2.796844     -0.563325
  H      -1.716828     -3.381848     -0.388087
27
Coordinates from ORCA-job opt E -876.482771227558
  C       2.911569      0.524550      1.703788
  C       2.367511     -0.235062      0.518933
  O       1.774530      0.710214     -0.401882
  P       0.604798      0.250171     -1.388537
  O       0.919265     -0.748997     -2.438744
  C       0.342307      1.885350     -2.130908
  N       0.132065      2.895301     -2.653180
  N      -0.724489     -0.093769     -0.495961
  C      -1.112432      0.709898      0.669001
  C      -2.297251      1.629345      0.403435
  C      -1.545080     -1.266472     -0.826640
  C      -1.037739     -2.542687     -0.174267
  H       2.104269      1.044936      2.239552
  H       3.658747      1.264946      1.383511
  H       3.394182     -0.176867      2.399569
  H       3.160491     -0.776036     -0.018580
  H       1.603069     -0.964935      0.831492
  H      -1.333917      0.019158      1.499121
  H      -0.241323      1.301040      0.988252
  H      -3.188765      1.061990      0.096426
  H      -2.064800      2.358229     -0.387397
  H      -2.552629      2.186592      1.316819
  H      -2.574453     -1.046151     -0.507096
  H      -1.577737     -1.383140     -1.919062
  H      -0.965672     -2.429204      0.918220
  H      -0.040248     -2.796500     -0.562793
  H      -1.716267     -3.381899     -0.387737
27
Coordinates from ORCA-job opt E -876.482772473935
  C       2.911805      0.524456      1.703746
  C       2.367487     -0.235100      0.518975
  O       1.774479      0.710241     -0.401754
  P       0.604785      0.250228     -1.388473
  O       0.919298     -0.748899     -2.438703
  C       0.342320      1.885440     -2.130782
  N       0.132093      2.895426     -2.652988
  N      -0.724545     -0.093738     -0.495965
  C      -1.112571      0.709945      0.668962
  C      -2.297414      1.629332      0.403307
  C      -1.545064     -1.266491     -0.826639
  C      -1.037690     -2.542663     -0.174211
  H       2.104636      1.044926      2.239628
  H       3.659008      1.264775      1.383351
  H       3.394454     -0.177009      2.399451
  H       3.160327     -0.776171     -0.018644
  H       1.603007     -0.964883      0.831652
  H      -1.334067      0.019223      1.499093
  H      -0.241501      1.301133      0.988238
  H      -3.188884      1.061927      0.096267
  H      -2.064950      2.358199     -0.387538
  H      -2.552864      2.186600      1.316658
  H      -2.574458     -1.046205     -0.507139
  H      -1.577676     -1.383195     -1.919057
  H      -0.965660     -2.429142      0.918275
  H      -0.040176     -2.796443     -0.562702
  H      -1.716176     -3.381914     -0.387669
27
Coordinates from ORCA-job opt E -876.482772699307
  C       2.912148      0.524307      1.703670
  C       2.367395     -0.235166      0.519047
  O       1.774394      0.710282     -0.401575
  P       0.604758      0.250330     -1.388399
  O       0.919339     -0.748734     -2.438664
  C       0.342345      1.885597     -2.130602
  N       0.132169      2.895639     -2.652719
  N      -0.724637     -0.093681     -0.495995
  C      -1.112776      0.710014      0.668892
  C      -2.297663      1.629315      0.403140
  C      -1.545024     -1.266530     -0.826652
  C      -1.037578     -2.542614     -0.174111
  H       2.105212      1.044974      2.239710
  H       3.659444      1.264450      1.383084
  H       3.394796     -0.177245      2.399288
  H       3.159992     -0.776442     -0.018724
  H       1.602814     -0.964760      0.831917
  H      -1.334274      0.019305      1.499034
  H      -0.241758      1.301262      0.988200
  H      -3.189075      1.061838      0.096064
  H      -2.065201      2.358168     -0.387716
  H      -2.553206      2.186598      1.316455
  H      -2.574459     -1.046311     -0.507240
  H      -1.577544     -1.383307     -1.919064
  H      -0.965621     -2.429017      0.918372
  H      -0.040018     -2.796328     -0.562527
  H      -1.715973     -3.381942     -0.387553
27
Coordinates from ORCA-job opt E -876.482770209111
  C       2.914032      0.523537      1.703252
  C       2.366844     -0.235549      0.519504
  O       1.773971      0.710436     -0.400628
  P       0.604628      0.250864     -1.388020
  O       0.919541     -0.747880     -2.438472
  C       0.342577      1.886431     -2.129676
  N       0.132763      2.896777     -2.651346
  N      -0.725136     -0.093336     -0.496196
  C      -1.113839      0.710416      0.668480
  C      -2.299082      1.629134      0.402317
  C      -1.544820     -1.266692     -0.826750
  C      -1.036973     -2.542314     -0.173617
  H       2.108412      1.045395      2.240107
  H       3.661900      1.262628      1.381564
  H       3.396610     -0.178459      2.398469
  H       3.158077     -0.778062     -0.019035
  H       1.601651     -0.964023      0.833492
  H      -1.335207      0.019768      1.498708
  H      -0.243127      1.302073      0.987870
  H      -3.190165      1.061179      0.095167
  H      -2.066792      2.357934     -0.388636
  H      -2.555070      2.186490      1.315460
  H      -2.574470     -1.046847     -0.507778
  H      -1.576870     -1.383859     -1.919132
  H      -0.965498     -2.428359      0.918860
  H      -0.039127     -2.795607     -0.561568
  H      -1.714828     -3.382073     -0.387062
27
Coordinates from ORCA-job opt E -876.482769705680
  C       2.912813      0.524079      1.703525
  C       2.367200     -0.235287      0.519231
  O       1.774251      0.710329     -0.401245
  P       0.604716      0.250500     -1.388261
  O       0.919413     -0.748457     -2.438587
  C       0.342419      1.885867     -2.130279
  N       0.132364      2.896010     -2.652250
  N      -0.724805     -0.093575     -0.496058
  C      -1.113133      0.710137      0.668759
  C      -2.298135      1.629246      0.402865
  C      -1.544965     -1.266583     -0.826696
  C      -1.037391     -2.542525     -0.173976
  H       2.106343      1.045187      2.239836
  H       3.660317      1.263837      1.382533
  H       3.395427     -0.177612      2.399026
  H       3.159314     -0.777016     -0.018798
  H       1.602399     -0.964475      0.832513
  H      -1.334592      0.019448      1.498929
  H      -0.242217      1.301519      0.988095
  H      -3.189440      1.061612      0.095767
  H      -2.065728      2.358078     -0.388026
  H      -2.553825      2.186557      1.316121
  H      -2.574470     -1.046489     -0.507423
  H      -1.577335     -1.383473     -1.919099
  H      -0.965594     -2.428823      0.918507
  H      -0.039737     -2.796099     -0.562241
  H      -1.715611     -3.381990     -0.387432
27
Coordinates from ORCA-job opt E -876.482766965777
  C       2.910966      0.524778      1.703924
  C       2.367712     -0.234944      0.518768
  O       1.774662      0.710166     -0.402180
  P       0.604833      0.250008     -1.388652
  O       0.919188     -0.749236     -2.438821
  C       0.342206      1.885106     -2.131162
  N       0.131832      2.894969     -2.653552
  N      -0.724326     -0.093891     -0.495876
  C      -1.112102      0.709779      0.669137
  C      -2.296789      1.629420      0.403652
  C      -1.545143     -1.266433     -0.826581
  C      -1.037933     -2.542801     -0.174407
  H       2.103226      1.044737      2.239440
  H       3.657932      1.265545      1.384016
  H       3.393631     -0.176499      2.399807
  H       3.161147     -0.775485     -0.018508
  H       1.603491     -0.965206      0.830953
  H      -1.333652      0.019035      1.499235
  H      -0.240896      1.300787      0.988371
  H      -3.188404      1.062220      0.096652
  H      -2.064249      2.358296     -0.387162
  H      -2.552043      2.186673      1.317067
  H      -2.574445     -1.045992     -0.506891
  H      -1.577955     -1.382969     -1.919013
  H      -0.965702     -2.429443      0.918083
  H      -0.040540     -2.796751     -0.563095
  H      -1.716644     -3.381869     -0.387869
27
Coordinates from ORCA-job opt E -876.482771313310
  C       2.908920      0.525394      1.704355
  C       2.368302     -0.234621      0.518172
  O       1.775110      0.709996     -0.403207
  P       0.604949      0.249512     -1.389090
  O       0.918913     -0.750034     -2.439100
  C       0.341984      1.884337     -2.132101
  N       0.131270      2.893926     -2.654888
  N      -0.723827     -0.094184     -0.495699
  C      -1.111022      0.709456      0.669506
  C      -2.295398      1.629629      0.404455
  C      -1.545299     -1.266273     -0.826424
  C      -1.038442     -2.543036     -0.174746
  H       2.099762      1.043995      2.239047
  H       3.655257      1.267338      1.385714
  H       3.391679     -0.175475      2.400586
  H       3.163211     -0.773767     -0.018322
  H       1.604749     -0.966128      0.829072
  H      -1.332647      0.018661      1.499539
  H      -0.239522      1.300090      0.988622
  H      -3.187327      1.062861      0.097560
  H      -2.062738      2.358558     -0.386278
  H      -2.550207      2.186817      1.318037
  H      -2.574397     -1.045478     -0.506320
  H      -1.578557     -1.382508     -1.918882
  H      -0.965792     -2.429983      0.917749
  H      -0.041302     -2.797361     -0.563835
  H      -1.717629     -3.381724     -0.388190
27
Coordinates from ORCA-job opt E -876.482771674110
  C       2.910441      0.524887      1.704035
  C       2.367881     -0.234880      0.518587
  O       1.774777      0.710122     -0.402441
  P       0.604859      0.249892     -1.388765
  O       0.919106     -0.749424     -2.438899
  C       0.342155      1.884929     -2.131389
  N       0.131697      2.894735     -2.653857
  N      -0.724208     -0.093949     -0.495837
  C      -1.111845      0.709723      0.669215
  C      -2.296466      1.629480      0.403834
  C      -1.545173     -1.266393     -0.826529
  C      -1.038039     -2.542842     -0.174453
  H       2.102326      1.044457      2.239363
  H       3.657225      1.265989      1.384478
  H       3.393154     -0.176298      2.399979
  H       3.161707     -0.775028     -0.018505
  H       1.603846     -0.965489      0.830414
  H      -1.333405      0.018972      1.499304
  H      -0.240573      1.300651      0.988414
  H      -3.188150      1.062374      0.096859
  H      -2.063903      2.358370     -0.386962
  H      -2.551619      2.186717      1.317287
  H      -2.574427     -1.045867     -0.506742
  H      -1.578093     -1.382879     -1.918966
  H      -0.965714     -2.429541      0.918038
  H      -0.040702     -2.796880     -0.563227
  H      -1.716856     -3.381829     -0.387900
27
Coordinates from ORCA-job opt E -876.482771476214
  C       2.911708      0.524480      1.703764
  C       2.367529     -0.235100      0.518946
  O       1.774516      0.710213     -0.401809
  P       0.604794      0.250204     -1.388495
  O       0.919262     -0.748922     -2.438734
  C       0.342313      1.885414     -2.130808
  N       0.132074      2.895391     -2.653028
  N      -0.724514     -0.093754     -0.495943
  C      -1.112522      0.709946      0.668982
  C      -2.297362      1.629338      0.403332
  C      -1.545068     -1.266481     -0.826620
  C      -1.037714     -2.542677     -0.174226
  H       2.104467      1.044881      2.239604
  H       3.658876      1.264859      1.383427
  H       3.394369     -0.176960      2.399486
  H       3.160446     -0.776100     -0.018629
  H       1.603082     -0.964945      0.831557
  H      -1.334015      0.019232      1.499121
  H      -0.241447      1.301133      0.988247
  H      -3.188836      1.061934      0.096298
  H      -2.064899      2.358199     -0.387517
  H      -2.552805      2.186612      1.316681
  H      -2.574450     -1.046173     -0.507097
  H      -1.577704     -1.383165     -1.919039
  H      -0.965652     -2.429179      0.918260
  H      -0.040216     -2.796479     -0.562747
  H      -1.716231     -3.381904     -0.387679
27
Coordinates from ORCA-job opt E -876.482771530214
  C       2.912408      0.524252      1.703619
  C       2.367322     -0.235204      0.519140
  O       1.774352      0.710288     -0.401456
  P       0.604747      0.250383     -1.388347
  O       0.919362     -0.748638     -2.438639
  C       0.342368      1.885689     -2.130480
  N       0.132229      2.895764     -2.652548
  N      -0.724690     -0.093653     -0.496011
  C      -1.112896      0.710054      0.668848
  C      -2.297831      1.629277      0.403046
  C      -1.545010     -1.266546     -0.826675
  C      -1.037529     -2.542595     -0.174092
  H       2.105658      1.045122      2.239740
  H       3.659805      1.264222      1.382866
  H       3.395016     -0.177345      2.399221
  H       3.159731     -0.776675     -0.018713
  H       1.602650     -0.964629      0.832185
  H      -1.334371      0.019358      1.499008
  H      -0.241916      1.301357      0.988158
  H      -3.189206      1.061735      0.095980
  H      -2.065400      2.358114     -0.387835
  H      -2.553419      2.186580      1.316335
  H      -2.574466     -1.046364     -0.507306
  H      -1.577483     -1.383347     -1.919086
  H      -0.965609     -2.428972      0.918391
  H      -0.039945     -2.796268     -0.562472
  H      -1.715876     -3.381960     -0.387541
27
Coordinates from ORCA-job opt E -876.482771190680
  C       2.913624      0.523899      1.703360
  C       2.366970     -0.235393      0.519503
  O       1.774082      0.710383     -0.400844
  P       0.604676      0.250670     -1.388082
  O       0.919525     -0.748172     -2.438470
  C       0.342495      1.886139     -2.129915
  N       0.132553      2.896376     -2.651746
  N      -0.724988     -0.093485     -0.496113
  C      -1.113536      0.710237      0.668629
  C      -2.298647      1.629155      0.402569
  C      -1.544922     -1.266642     -0.826771
  C      -1.037232     -2.542459     -0.173902
  H       2.107723      1.045581      2.239965
  H       3.661394      1.263163      1.381845
  H       3.396176     -0.177934      2.398763
  H       3.158500     -0.777693     -0.018813
  H       1.601906     -0.964075      0.833319
  H      -1.334970      0.019572      1.498826
  H      -0.242727      1.301756      0.988010
  H      -3.189842      1.061366      0.095445
  H      -2.066281      2.357957     -0.388362
  H      -2.554491      2.186502      1.315759
  H      -2.574498     -1.046673     -0.507642
  H      -1.577135     -1.383613     -1.919169
  H      -0.965575     -2.428665      0.918580
  H      -0.039492     -2.795901     -0.562033
  H      -1.715289     -3.382050     -0.387378
27
Coordinates from ORCA-job opt E -876.482770683666
  C       2.912974      0.524119      1.703499
  C       2.367154     -0.235282      0.519324
  O       1.774223      0.710329     -0.401169
  P       0.604715      0.250505     -1.388220
  O       0.919443     -0.748437     -2.438552
  C       0.342425      1.885882     -2.130224
  N       0.132379      2.896023     -2.652201
  N      -0.724826     -0.093585     -0.496055
  C      -1.113184      0.710120      0.668755
  C      -2.298188      1.629219      0.402837
  C      -1.544979     -1.266588     -0.826726
  C      -1.037408     -2.542542     -0.174029
  H       2.106618      1.045372      2.239843
  H       3.660538      1.263759      1.382376
  H       3.395563     -0.177573      2.399017
  H       3.159153     -0.777147     -0.018739
  H       1.602299     -0.964354      0.832740
  H      -1.334651      0.019431      1.498923
  H      -0.242278      1.301512      0.988106
  H      -3.189485      1.061578      0.095734
  H      -2.065773      2.358045     -0.388059
  H      -2.553893      2.186537      1.316085
  H      -2.574487     -1.046504     -0.507456
  H      -1.577342     -1.383450     -1.919133
  H      -0.965611     -2.428856      0.918456
  H      -0.039753     -2.796111     -0.562296
  H      -1.715627     -3.382004     -0.387501
27
Coordinates from ORCA-job opt E -876.482769828965
  C       2.912267      0.524350      1.703649
  C       2.367365     -0.235169      0.519124
  O       1.774382      0.710262     -0.401527
  P       0.604755      0.250325     -1.388368
  O       0.919340     -0.748722     -2.438647
  C       0.342348      1.885607     -2.130545
  N       0.132187      2.895654     -2.652659
  N      -0.724651     -0.093694     -0.495983
  C      -1.112808      0.710009      0.668890
  C      -2.297700      1.629296      0.403115
  C      -1.545040     -1.266533     -0.826667
  C      -1.037593     -2.542638     -0.174164
  H       2.105416      1.045132      2.239703
  H       3.659609      1.264399      1.382955
  H       3.394898     -0.177191      2.399291
  H       3.159879     -0.776554     -0.018660
  H       1.602741     -0.964672      0.832101
  H      -1.334306      0.019306      1.499038
  H      -0.241797      1.301268      0.988198
  H      -3.189106      1.061807      0.096045
  H      -2.065238      2.358137     -0.387752
  H      -2.553252      2.186594      1.316418
  H      -2.574473     -1.046323     -0.507242
  H      -1.577566     -1.383276     -1.919083
  H      -0.965653     -2.429081      0.918324
  H      -0.040026     -2.796332     -0.562574
  H      -1.715981     -3.381962     -0.387646
27
Coordinates from ORCA-job opt E -876.482770513355
  C       2.911795      0.524487      1.703755
  C       2.367515     -0.235097      0.518983
  O       1.774485      0.710216     -0.401762
  P       0.604784      0.250204     -1.388471
  O       0.919279     -0.748920     -2.438705
  C       0.342321      1.885422     -2.130773
  N       0.132095      2.895411     -2.652975
  N      -0.724542     -0.093753     -0.495952
  C      -1.112557      0.709947      0.668966
  C      -2.297399      1.629337      0.403310
  C      -1.545083     -1.266491     -0.826634
  C      -1.037716     -2.542684     -0.174242
  H       2.104608      1.044937      2.239627
  H       3.658980      1.264826      1.383362
  H       3.394460     -0.176958      2.399469
  H       3.160381     -0.776144     -0.018624
  H       1.603058     -0.964905      0.831657
  H      -1.334048      0.019235      1.499109
  H      -0.241480      1.301134      0.988227
  H      -3.188877      1.061931      0.096294
  H      -2.064943      2.358185     -0.387554
  H      -2.552833      2.186627      1.316652
  H      -2.574469     -1.046200     -0.507113
  H      -1.577716     -1.383171     -1.919055
  H      -0.965684     -2.429197      0.918248
  H      -0.040205     -2.796460     -0.562741
  H      -1.716209     -3.381922     -0.387725
27
Coordinates from ORCA-job opt E -876.482773576220
  C       2.911565      0.524530      1.703803
  C       2.367593     -0.235061      0.518895
  O       1.774535      0.710213     -0.401875
  P       0.604795      0.250159     -1.388517
  O       0.919255     -0.748998     -2.438733
  C       0.342284      1.885349     -2.130869
  N       0.132014      2.895314     -2.653100
  N      -0.724488     -0.093782     -0.495933
  C      -1.112446      0.709916      0.669004
  C      -2.297250      1.629364      0.403381
  C      -1.545094     -1.266477     -0.826609
  C      -1.037766     -2.542703     -0.174255
  H       2.104210      1.044807      2.239590
  H       3.658677      1.265015      1.383580
  H       3.394237     -0.176886      2.399544
  H       3.160631     -0.775929     -0.018637
  H       1.603220     -0.965024      0.831408
  H      -1.333951      0.019203      1.499140
  H      -0.241339      1.301062      0.988257
  H      -3.188761      1.062003      0.096376
  H      -2.064773      2.358210     -0.387480
  H      -2.552640      2.186655      1.316734
  H      -2.574461     -1.046145     -0.507052
  H      -1.577769     -1.383135     -1.919031
  H      -0.965674     -2.429228      0.918232
  H      -0.040287     -2.796530     -0.562805
  H      -1.716315     -3.381903     -0.387715
27
Coordinates from ORCA-job opt E -876.482775982875
  C       2.910216      0.524719      1.704070
  C       2.367974     -0.234879      0.518379
  O       1.774792      0.710194     -0.402527
  P       0.604838      0.249945     -1.388812
  O       0.919098     -0.749383     -2.438941
  C       0.342076      1.884978     -2.131420
  N       0.131584      2.894809     -2.653827
  N      -0.724192     -0.093927     -0.495854
  C      -1.111816      0.709753      0.669199
  C      -2.296407      1.629532      0.403791
  C      -1.545125     -1.266412     -0.826471
  C      -1.037979     -2.542787     -0.174266
  H       2.101922      1.044030      2.239379
  H       3.656933      1.266019      1.384813
  H       3.392917     -0.176547      2.399944
  H       3.161972     -0.774751     -0.018733
  H       1.604052     -0.965711      0.829961
  H      -1.333398      0.019014      1.499288
  H      -0.240536      1.300657      0.988409
  H      -3.188109      1.062439      0.096847
  H      -2.063824      2.358380     -0.387038
  H      -2.551537      2.186810      1.317225
  H      -2.574393     -1.045872     -0.506737
  H      -1.578006     -1.382988     -1.918896
  H      -0.965587     -2.429342      0.918202
  H      -0.040663     -2.796875     -0.563068
  H      -1.716804     -3.381804     -0.387580
27
Coordinates from ORCA-job opt E -876.482771911298
  C       2.908176      0.525023      1.704482
  C       2.368597     -0.234636      0.517612
  O       1.775217      0.710098     -0.403527
  P       0.604925      0.249588     -1.389258
  O       0.918818     -0.749991     -2.439274
  C       0.341816      1.884388     -2.132243
  N       0.131002      2.894018     -2.654915
  N      -0.723733     -0.094140     -0.495716
  C      -1.110854      0.709548      0.669488
  C      -2.295175      1.629774      0.404419
  C      -1.545186     -1.266292     -0.826248
  C      -1.038321     -2.542923     -0.174322
  H       2.098436      1.042824      2.239071
  H       3.654231      1.267600      1.386652
  H       3.391001     -0.175966      2.400551
  H       3.164083     -0.772977     -0.018825
  H       1.605379     -0.966804      0.827777
  H      -1.332501      0.018790      1.499542
  H      -0.239328      1.300141      0.988586
  H      -3.187145      1.063047      0.097579
  H      -2.062477      2.358638     -0.386364
  H      -2.549925      2.187028      1.317974
  H      -2.574292     -1.045438     -0.506204
  H      -1.578419     -1.382721     -1.918680
  H      -0.965509     -2.429589      0.918130
  H      -0.041244     -2.797388     -0.563491
  H      -1.717570     -3.381641     -0.387460
27
Coordinates from ORCA-job opt E -876.482770488421
  C       2.910137      0.524724      1.704090
  C       2.368018     -0.234893      0.518348
  O       1.774825      0.710158     -0.402573
  P       0.604850      0.249923     -1.388832
  O       0.919062     -0.749405     -2.438972
  C       0.342091      1.884952     -2.131440
  N       0.131595      2.894780     -2.653851
  N      -0.724170     -0.093928     -0.495842
  C      -1.111781      0.709772      0.669203
  C      -2.296389      1.629538      0.403810
  C      -1.545128     -1.266399     -0.826452
  C      -1.037990     -2.542791     -0.174272
  H       2.101773      1.043948      2.239379
  H       3.656797      1.266098      1.384875
  H       3.392885     -0.176512      2.399959
  H       3.162092     -0.774692     -0.018724
  H       1.604131     -0.965789      0.829864
  H      -1.333339      0.019043      1.499310
  H      -0.240502      1.300695      0.988386
  H      -3.188089      1.062437      0.096873
  H      -2.063823      2.358393     -0.387017
  H      -2.551516      2.186812      1.317248
  H      -2.574386     -1.045851     -0.506690
  H      -1.578037     -1.382967     -1.918878
  H      -0.965600     -2.429373      0.918201
  H      -0.040678     -2.796884     -0.563078
  H      -1.716831     -3.381791     -0.387593
