28
Coordinates from ORCA-job opt E -901.732432098134
  C          -1.78076356755559      2.06302030505170      0.45153355053645
  C          -1.96376263257439      0.72679535571406     -0.25732980562653
  N          -0.74907541592597     -0.09320446455410     -0.24354079423456
  C          -0.39338352239188     -0.73437767020040      1.02719863211516
  C          -1.57639415103555     -1.28456407177248      1.80935610666120
  C           0.13082076418911     -0.05988329550065     -1.26526487119771
  C          -0.29110025590239      0.64498181600577     -2.53575751047873
  N           1.32109105474359     -0.58313213694935     -1.27458237130480
  P           2.45105993649203     -1.33861112757066     -0.40911259807844
  C           3.29515916050697     -0.15855228426439      0.64587788198779
  O           2.16167418038106     -2.66448740250532      0.22075480334979
  F           3.58960441958391     -1.56522017086874     -1.53566913903853
  H          -0.98491781913691      2.65609541673533     -0.02465978900924
  H          -1.51774326074827      1.92506765365395      1.51135727691519
  H          -2.71456101277246      2.64243171212722      0.40893818744724
  H          -2.28078240343411      0.88244983934903     -1.29314883931214
  H          -2.77100598968859      0.15104963689158      0.21375259695386
  H           0.27807921368647     -1.57074945011055      0.80274907748009
  H           0.17082856460901     -0.02000949540766      1.65353960952000
  H          -2.23106173762488     -0.49898721294383      2.21311941868551
  H          -1.18946189221756     -1.85988247990233      2.66253108351999
  H          -2.18309429910652     -1.96358073999345      1.19095944248543
  H          -0.46215701993754      1.71679638157238     -2.35759172988563
  H          -1.21750393295949      0.21719915905107     -2.94538253412557
  H           0.51152999077489      0.53253507804890     -3.27103955044220
  H           4.20070830367195     -0.62631987347887      1.05655798905095
  H           3.56529923947534      0.73726169487113      0.07134462448364
  H           2.63091411489776      0.12587778695065      1.47350924154182
