28
Coordinates from ORCA-job opt E -901.707552203946
  C      -1.048550      2.015919      1.295790
  C      -1.125170      1.254814     -0.018656
  N      -0.320233      0.021813      0.003783
  C      -0.673351     -0.985555      1.028147
  C      -2.113067     -1.465851      0.913082
  C       0.207518     -0.455738     -1.187269
  C      -0.664437     -0.423395     -2.429128
  N       1.407149     -0.895245     -1.359326
  P       2.582454     -0.941804     -0.275068
  C       2.970661      0.750251      0.167851
  O       2.399261     -1.810210      0.939942
  F       3.792043     -1.532596     -1.098414
  H      -0.009419      2.194627      1.589719
  H      -1.542297      1.472212      2.106812
  H      -1.547505      2.985474      1.198451
  H      -0.737452      1.918242     -0.801906
  H      -2.167866      1.038828     -0.275213
  H      -0.029742     -1.864258      0.929739
  H      -0.488340     -0.579839      2.028230
  H      -2.826190     -0.664313      1.127011
  H      -2.297770     -2.270493      1.632183
  H      -2.324724     -1.852045     -0.088774
  H      -0.542184      0.542175     -2.927951
  H      -1.716052     -0.564566     -2.167525
  H      -0.366123     -1.217777     -3.119759
  H       3.886545      0.776915      0.764537
  H       3.128517      1.352907     -0.730662
  H       2.166325      1.199510      0.754373
28
Coordinates from ORCA-job opt E -901.716475820848
  C      -1.148548      2.038245      1.224906
  C      -1.210488      1.237198     -0.067125
  N      -0.338214      0.062152     -0.023590
  C      -0.596813     -0.930261      1.031873
  C      -2.007060     -1.515831      0.992874
  C       0.178149     -0.399410     -1.223479
  C      -0.679325     -0.292804     -2.466251
  N       1.362109     -0.890079     -1.362980
  P       2.518687     -1.004989     -0.228431
  C       3.038195      0.648857      0.222049
  O       2.289163     -1.898223      0.955571
  F       3.719845     -1.608983     -1.070916
  H      -0.109064      2.285015      1.486836
  H      -1.594927      1.493334      2.069816
  H      -1.705649      2.978103      1.106583
  H      -0.870719      1.885498     -0.887836
  H      -2.255021      0.957136     -0.293659
  H       0.126038     -1.748558      0.927356
  H      -0.400848     -0.473997      2.013997
  H      -2.777333     -0.760122      1.208280
  H      -2.101087     -2.306713      1.751234
  H      -2.227472     -1.961677      0.011435
  H      -0.518121      0.688218     -2.939247
  H      -1.744976     -0.397020     -2.222748
  H      -0.391360     -1.072889     -3.180256
  H       3.952836      0.600449      0.830025
  H       3.243063      1.252210     -0.673981
  H       2.248939      1.135141      0.807663
28
Coordinates from ORCA-job opt E -901.720470372185
  C      -1.265136      2.034952      1.176145
  C      -1.276825      1.200230     -0.096526
  N      -0.362991      0.064899     -0.007048
  C      -0.611318     -0.892288      1.076317
  C      -2.011299     -1.505979      1.046252
  C       0.169256     -0.391040     -1.202523
  C      -0.655961     -0.203649     -2.448271
  N       1.346736     -0.915418     -1.334967
  P       2.565985     -1.057553     -0.226943
  C       3.146616      0.574574      0.221939
  O       2.439091     -2.019331      0.910037
  F       3.735960     -1.561454     -1.194581
  H      -0.235238      2.326054      1.443373
  H      -1.705823      1.499180      2.033186
  H      -1.854566      2.952043      1.020438
  H      -0.943020      1.826600     -0.936560
  H      -2.314501      0.881291     -0.329539
  H       0.150396     -1.674821      1.004276
  H      -0.435842     -0.388506      2.042641
  H      -2.807045     -0.761468      1.220617
  H      -2.092941     -2.267577      1.838774
  H      -2.207724     -2.002619      0.080110
  H      -0.461160      0.791529     -2.886285
  H      -1.732508     -0.279873     -2.235333
  H      -0.360368     -0.959959     -3.185891
  H       4.099145      0.492258      0.768938
  H       3.293486      1.203146     -0.670497
  H       2.387594      1.034778      0.871919
28
Coordinates from ORCA-job opt E -901.723515477445
  C      -1.359105      2.071881      1.114370
  C      -1.371926      1.201065     -0.134080
  N      -0.382348      0.121967     -0.058568
  C      -0.497291     -0.795134      1.083060
  C      -1.836923     -1.520985      1.146728
  C       0.151760     -0.334551     -1.252542
  C      -0.626567     -0.095377     -2.517460
  N       1.290784     -0.941423     -1.362210
  P       2.489223     -1.166218     -0.233075
  C       3.080818      0.429294      0.319232
  O       2.343249     -2.209128      0.822149
  F       3.678857     -1.584848     -1.230771
  H      -0.340293      2.433700      1.325125
  H      -1.726613      1.537433      2.003166
  H      -2.011345      2.944106      0.960401
  H      -1.117257      1.821838     -1.002234
  H      -2.395753      0.816854     -0.308588
  H       0.330814     -1.508001      1.011788
  H      -0.324351     -0.228711      2.012528
  H      -2.683082     -0.837928      1.317265
  H      -1.820354     -2.240745      1.979146
  H      -2.027450     -2.082700      0.217644
  H      -0.391416      0.897723     -2.933283
  H      -1.709717     -0.142624     -2.346531
  H      -0.319749     -0.842498     -3.259215
  H       4.015258      0.296444      0.881700
  H       3.251645      1.101288     -0.532261
  H       2.309131      0.857276      0.976517
28
Coordinates from ORCA-job opt E -901.726401736907
  C      -1.446634      2.088391      1.034493
  C      -1.462945      1.174111     -0.182586
  N      -0.410401      0.149429     -0.120456
  C      -0.388731     -0.681235      1.094482
  C      -1.666523     -1.482960      1.290775
  C       0.133913     -0.312631     -1.298762
  C      -0.572467      0.012444     -2.588507
  N       1.240549     -0.981032     -1.406357
  P       2.441959     -1.281752     -0.299686
  C       2.957754      0.261090      0.449472
  O       2.339781     -2.457614      0.607662
  F       3.658115     -1.512641     -1.336015
  H      -0.444598      2.517039      1.185127
  H      -1.741716      1.566498      1.955399
  H      -2.156200      2.913384      0.881396
  H      -1.287141      1.780538     -1.078024
  H      -2.465504      0.724457     -0.293557
  H       0.476726     -1.348973      1.036780
  H      -0.205450     -0.032229      1.964045
  H      -2.544288     -0.841928      1.451436
  H      -1.558943     -2.126129      2.176031
  H      -1.864095     -2.129141      0.422052
  H      -0.295075      1.016984     -2.942482
  H      -1.663395     -0.019275     -2.484083
  H      -0.236152     -0.701957     -3.348245
  H       3.884617      0.092682      1.012275
  H       3.113627      1.026693     -0.319378
  H       2.163219      0.585758      1.136714
28
Coordinates from ORCA-job opt E -901.728581197728
  C      -1.582307      2.059594      1.003718
  C      -1.558876      1.133859     -0.204903
  N      -0.463412      0.150637     -0.145488
  C      -0.367310     -0.601340      1.117035
  C      -1.605878     -1.436781      1.390610
  C       0.134261     -0.282405     -1.292010
  C      -0.489649      0.113020     -2.608937
  N       1.212151     -1.003719     -1.395888
  P       2.435250     -1.347503     -0.344249
  C       3.012198      0.157642      0.446051
  O       2.325426     -2.552780      0.523231
  F       3.618372     -1.584007     -1.421199
  H      -0.603199      2.538313      1.148573
  H      -1.853139      1.535157      1.929579
  H      -2.330169      2.847252      0.841648
  H      -1.418445      1.746938     -1.100310
  H      -2.533508      0.630449     -0.308184
  H       0.506483     -1.258859      1.093795
  H      -0.188259      0.105449      1.939301
  H      -2.500997     -0.815745      1.524797
  H      -1.460425     -2.015255      2.313292
  H      -1.793859     -2.142033      0.568773
  H      -0.205373      1.140797     -2.878334
  H      -1.584185      0.054990     -2.593859
  H      -0.083930     -0.547649     -3.381938
  H       3.941309     -0.062273      0.986229
  H       3.182090      0.930602     -0.311873
  H       2.255379      0.505650      1.160539
28
Coordinates from ORCA-job opt E -901.729609776766
  C      -1.628775      2.035701      0.995561
  C      -1.597491      1.105250     -0.209530
  N      -0.507622      0.116368     -0.150955
  C      -0.389137     -0.613355      1.118659
  C      -1.632280     -1.433102      1.433271
  C       0.127946     -0.282251     -1.273456
  C      -0.442251      0.171164     -2.600217
  N       1.203874     -1.014293     -1.361935
  P       2.436525     -1.349664     -0.339910
  C       3.080678      0.160744      0.390170
  O       2.309959     -2.517806      0.578813
  F       3.593267     -1.671581     -1.421301
  H      -0.649648      2.512765      1.149551
  H      -1.915046      1.519281      1.921940
  H      -2.371161      2.825817      0.817753
  H      -1.452741      1.720713     -1.103128
  H      -2.567892      0.594565     -0.320735
  H       0.465388     -1.295588      1.087715
  H      -0.177350      0.101970      1.925315
  H      -2.520205     -0.800748      1.573146
  H      -1.474810     -1.996708      2.363502
  H      -1.842210     -2.151184      0.627211
  H      -0.177546      1.222761     -2.790340
  H      -1.534509      0.077621     -2.650592
  H       0.021332     -0.433096     -3.386187
  H       4.010062     -0.076068      0.924941
  H       3.273029      0.893963     -0.403263
  H       2.358614      0.576760      1.103998
28
Coordinates from ORCA-job opt E -901.730109739384
  C      -1.640316      2.032390      0.958954
  C      -1.631780      1.076466     -0.226145
  N      -0.540255      0.092373     -0.174216
  C      -0.372546     -0.599281      1.105407
  C      -1.604120     -1.413652      1.491482
  C       0.121230     -0.271739     -1.285138
  C      -0.424606      0.216205     -2.611087
  N       1.196261     -1.012815     -1.361483
  P       2.427941     -1.370384     -0.362506
  C       3.056065      0.116563      0.426246
  O       2.324536     -2.572264      0.519602
  F       3.599499     -1.636656     -1.441301
  H      -0.659599      2.517846      1.080868
  H      -1.907758      1.540036      1.905195
  H      -2.388883      2.816121      0.773530
  H      -1.508972      1.673852     -1.135017
  H      -2.600171      0.553039     -0.308604
  H       0.475451     -1.288398      1.050799
  H      -0.124669      0.136150      1.885202
  H      -2.492575     -0.783225      1.649305
  H      -1.407745     -1.952426      2.429905
  H      -1.839831     -2.155130      0.712476
  H      -0.200827      1.287528     -2.740208
  H      -1.510788      0.077807     -2.705261
  H       0.088528     -0.333426     -3.406792
  H       3.984320     -0.133347      0.959691
  H       3.254042      0.878556     -0.340621
  H       2.327567      0.507814      1.149718
28
Coordinates from ORCA-job opt E -901.730400837967
  C      -1.624140      2.027072      0.963065
  C      -1.642428      1.066799     -0.217872
  N      -0.559482      0.074352     -0.173478
  C      -0.396679     -0.629565      1.098239
  C      -1.645507     -1.414905      1.494267
  C       0.124173     -0.265655     -1.284774
  C      -0.412032      0.220029     -2.613791
  N       1.204984     -0.999836     -1.342872
  P       2.435699     -1.353668     -0.349418
  C       3.086460      0.140955      0.403443
  O       2.333668     -2.534053      0.564481
  F       3.603648     -1.652353     -1.421388
  H      -0.638405      2.507680      1.063885
  H      -1.877085      1.542742      1.917770
  H      -2.370903      2.814708      0.785271
  H      -1.528431      1.656558     -1.131806
  H      -2.616211      0.549784     -0.284856
  H       0.431625     -1.339482      1.016857
  H      -0.119266      0.091688      1.882875
  H      -2.518052     -0.767650      1.672289
  H      -1.448154     -1.969178      2.423739
  H      -1.908595     -2.142394      0.710498
  H      -0.220446      1.299194     -2.725763
  H      -1.492396      0.049581     -2.723503
  H       0.126710     -0.306418     -3.408821
  H       4.015045     -0.107481      0.937386
  H       3.292676      0.887375     -0.376773
  H       2.363525      0.554121      1.121048
28
Coordinates from ORCA-job opt E -901.730622200199
  C      -1.623755      2.027755      0.940327
  C      -1.668015      1.041080     -0.217990
  N      -0.575231      0.058255     -0.179361
  C      -0.398214     -0.643800      1.092442
  C      -1.651066     -1.404136      1.517873
  C       0.124212     -0.259325     -1.290500
  C      -0.392921      0.245788     -2.617151
  N       1.209467     -0.984350     -1.339155
  P       2.437808     -1.352989     -0.352870
  C       3.091245      0.133158      0.413903
  O       2.338273     -2.541811      0.551061
  F       3.607232     -1.641836     -1.426288
  H      -0.641900      2.522420      0.996148
  H      -1.836493      1.562425      1.913392
  H      -2.386165      2.801879      0.770995
  H      -1.588230      1.608662     -1.148852
  H      -2.638161      0.515528     -0.244571
  H       0.415989     -1.367175      0.989402
  H      -0.092599      0.073373      1.870221
  H      -2.506340     -0.742809      1.720172
  H      -1.439480     -1.964553      2.440071
  H      -1.946836     -2.123702      0.739230
  H      -0.207808      1.326946     -2.710867
  H      -1.470817      0.070991     -2.739022
  H       0.155876     -0.266791     -3.413942
  H       4.019056     -0.121044      0.945087
  H       3.299051      0.890248     -0.354358
  H       2.365819      0.535812      1.134604
28
Coordinates from ORCA-job opt E -901.730921562339
  C      -1.623493      2.036764      0.875283
  C      -1.728151      0.981190     -0.217230
  N      -0.611330      0.025388     -0.193074
  C      -0.403094     -0.671886      1.078610
  C      -1.657607     -1.383400      1.569178
  C       0.126071     -0.235712     -1.295776
  C      -0.356320      0.305586     -2.618131
  N       1.220836     -0.941362     -1.328743
  P       2.445921     -1.351559     -0.364598
  C       3.105209      0.107403      0.448458
  O       2.346638     -2.567555      0.502675
  F       3.613904     -1.613535     -1.448479
  H      -0.658005      2.561322      0.817342
  H      -1.733322      1.623228      1.887279
  H      -2.423084      2.777453      0.731351
  H      -1.735503      1.488196     -1.184866
  H      -2.682425      0.435626     -0.139946
  H       0.380620     -1.422102      0.935372
  H      -0.039554      0.038443      1.838082
  H      -2.471614     -0.692740      1.828498
  H      -1.413007     -1.961113      2.471697
  H      -2.027007     -2.081521      0.803478
  H      -0.197883      1.392698     -2.671838
  H      -1.425275      0.108495     -2.774268
  H       0.225055     -0.168374     -3.415019
  H       4.032677     -0.165296      0.969444
  H       3.313047      0.895127     -0.286809
  H       2.376698      0.479235      1.182031
28
Coordinates from ORCA-job opt E -901.731143701348
  C      -1.612739      2.042493      0.819100
  C      -1.768699      0.937637     -0.217892
  N      -0.643023     -0.006024     -0.207496
  C      -0.411012     -0.700970      1.062885
  C      -1.663039     -1.370538      1.611853
  C       0.122498     -0.222348     -1.299390
  C      -0.335596      0.349010     -2.618128
  N       1.229765     -0.905842     -1.321968
  P       2.452904     -1.344010     -0.372380
  C       3.110206      0.093338      0.480437
  O       2.351022     -2.581789      0.462147
  F       3.621165     -1.582057     -1.463650
  H      -0.659629      2.573679      0.677602
  H      -1.649508      1.668405      1.851778
  H      -2.429884      2.768096      0.698993
  H      -1.839074      1.395518     -1.207112
  H      -2.709563      0.388308     -0.061065
  H       0.344702     -1.474484      0.892061
  H       0.003268      0.003058      1.802851
  H      -2.436097     -0.653554      1.919346
  H      -1.391271     -1.963373      2.496426
  H      -2.097679     -2.049585      0.863421
  H      -0.207652      1.441221     -2.635323
  H      -1.393076      0.126361     -2.812103
  H       0.281402     -0.084027     -3.411278
  H       4.038577     -0.190973      0.993497
  H       3.313595      0.905326     -0.228959
  H       2.378438      0.437122      1.224347
28
Coordinates from ORCA-job opt E -901.731523705151
  C      -1.620653      2.052359      0.671285
  C      -1.860001      0.838614     -0.219789
  N      -0.712801     -0.073057     -0.231542
  C      -0.434538     -0.756507      1.037721
  C      -1.670802     -1.342299      1.701044
  C       0.116148     -0.182499     -1.287669
  C      -0.293402      0.463315     -2.590703
  N       1.247484     -0.823011     -1.294228
  P       2.471616     -1.333132     -0.388468
  C       3.157092      0.045118      0.537384
  O       2.353125     -2.612983      0.374152
  F       3.624825     -1.534638     -1.508226
  H      -0.712857      2.587892      0.354806
  H      -1.503426      1.776095      1.729365
  H      -2.472493      2.743573      0.598387
  H      -2.068705      1.172786     -1.238702
  H      -2.751936      0.287680      0.108700
  H       0.265455     -1.572760      0.827278
  H       0.072071     -0.063002      1.730761
  H      -2.354352     -0.575921      2.091348
  H      -1.351301     -1.961215      2.551018
  H      -2.226851     -1.984326      1.001378
  H      -0.247491      1.560010     -2.517264
  H      -1.314056      0.182956     -2.883615
  H       0.410010      0.140181     -3.363896
  H       4.091704     -0.275448      1.017311
  H       3.349345      0.901548     -0.121092
  H       2.436791      0.338669      1.313257
28
Coordinates from ORCA-job opt E -901.731793762789
  C      -1.609572      2.079898      0.569618
  C      -1.896493      0.805538     -0.217682
  N      -0.748958     -0.102020     -0.236197
  C      -0.448669     -0.795870      1.023904
  C      -1.666962     -1.364159      1.734470
  C       0.105473     -0.161590     -1.273034
  C      -0.292375      0.520704     -2.563796
  N       1.252606     -0.772626     -1.272621
  P       2.473318     -1.321218     -0.381873
  C       3.181316      0.025369      0.572342
  O       2.331752     -2.614746      0.350907
  F       3.617254     -1.519930     -1.513420
  H      -0.737224      2.603535      0.149055
  H      -1.400652      1.865511      1.628820
  H      -2.474456      2.757525      0.528508
  H      -2.178253      1.057364     -1.244579
  H      -2.758130      0.275025      0.207403
  H       0.234074     -1.621556      0.790781
  H       0.094272     -0.112422      1.700542
  H      -2.309862     -0.587185      2.172246
  H      -1.320296     -2.004080      2.558233
  H      -2.274363     -1.983948      1.057273
  H      -0.297665      1.614689     -2.441881
  H      -1.288485      0.209905     -2.908113
  H       0.452643      0.263384     -3.322917
  H       4.121656     -0.313226      1.029185
  H       3.364266      0.899941     -0.065304
  H       2.473783      0.296187      1.368130
28
Coordinates from ORCA-job opt E -901.731975194553
  C      -1.602489      2.094382      0.538193
  C      -1.899540      0.802880     -0.215322
  N      -0.754132     -0.106908     -0.232083
  C      -0.447569     -0.808401      1.019968
  C      -1.664008     -1.377611      1.734748
  C       0.104258     -0.152713     -1.267762
  C      -0.303777      0.534556     -2.553134
  N       1.257648     -0.752142     -1.270279
  P       2.469324     -1.316557     -0.375185
  C       3.190112      0.018447      0.584048
  O       2.310677     -2.610224      0.355314
  F       3.615724     -1.524290     -1.500810
  H      -0.748078      2.619670      0.083802
  H      -1.361446      1.898337      1.594478
  H      -2.475542      2.762375      0.510513
  H      -2.198301      1.026520     -1.245048
  H      -2.753106      0.279821      0.236039
  H       0.232258     -1.634150      0.780430
  H       0.102115     -0.129320      1.695952
  H      -2.305180     -0.600313      2.175938
  H      -1.314493     -2.018855      2.556708
  H      -2.274572     -1.997960      1.060699
  H      -0.340050      1.626008     -2.413628
  H      -1.288935      0.202128     -2.909443
  H       0.452571      0.308327     -3.311342
  H       4.132247     -0.328061      1.031647
  H       3.373194      0.894505     -0.052096
  H       2.491089      0.289550      1.387652
28
Coordinates from ORCA-job opt E -901.732140295852
  C      -1.626268      2.100470      0.487098
  C      -1.918379      0.781197     -0.216540
  N      -0.762357     -0.117022     -0.229107
  C      -0.442744     -0.811149      1.021115
  C      -1.655161     -1.372058      1.750232
  C       0.108205     -0.131361     -1.258999
  C      -0.299104      0.576092     -2.532791
  N       1.267275     -0.719832     -1.267193
  P       2.464368     -1.320929     -0.376456
  C       3.217495     -0.014793      0.595802
  O       2.282403     -2.621117      0.340073
  F       3.609882     -1.534117     -1.499336
  H      -0.808566      2.639433     -0.016184
  H      -1.336977      1.938365      1.536966
  H      -2.520384      2.740781      0.478193
  H      -2.245867      0.959022     -1.245960
  H      -2.751294      0.258956      0.273112
  H       0.229681     -1.641542      0.779729
  H       0.116940     -0.130657      1.688181
  H      -2.295203     -0.590587      2.185483
  H      -1.301683     -2.004562      2.577506
  H      -2.268526     -2.000540      1.086418
  H      -0.386485      1.659564     -2.360675
  H      -1.261627      0.212679     -2.919706
  H       0.480044      0.403434     -3.282132
  H       4.160950     -0.383309      1.022453
  H       3.406513      0.866057     -0.032056
  H       2.536869      0.257525      1.414773
28
Coordinates from ORCA-job opt E -901.731980990632
  C      -1.658435      2.109340      0.547749
  C      -1.890337      0.817291     -0.222767
  N      -0.725247     -0.075561     -0.214438
  C      -0.414289     -0.769562      1.036051
  C      -1.633051     -1.376874      1.717874
  C       0.121533     -0.125477     -1.268773
  C      -0.318717      0.541487     -2.551772
  N       1.277935     -0.720659     -1.299366
  P       2.444959     -1.334039     -0.368505
  C       3.223588     -0.028938      0.583358
  O       2.224286     -2.617215      0.371356
  F       3.602215     -1.587377     -1.465299
  H      -0.831676      2.691239      0.112124
  H      -1.424604      1.910822      1.604505
  H      -2.568264      2.726446      0.514187
  H      -2.161882      1.031322     -1.260882
  H      -2.742530      0.267121      0.200371
  H       0.289288     -1.578066      0.813288
  H       0.102425     -0.078209      1.725474
  H      -2.330767     -0.620713      2.105675
  H      -1.296053     -1.982588      2.571759
  H      -2.181615     -2.039590      1.031193
  H      -0.412457      1.628011     -2.408618
  H      -1.288272      0.158786     -2.901172
  H       0.440532      0.351456     -3.317203
  H       4.157890     -0.413014      1.015889
  H       3.438380      0.828157     -0.068671
  H       2.555168      0.286405      1.396612
28
Coordinates from ORCA-job opt E -901.732261271257
  C      -1.655689      2.098654      0.501809
  C      -1.915408      0.784406     -0.222664
  N      -0.747212     -0.101291     -0.226653
  C      -0.426489     -0.788505      1.027376
  C      -1.637546     -1.361250      1.749149
  C       0.116038     -0.121175     -1.265187
  C      -0.300210      0.576465     -2.540585
  N       1.276726     -0.706734     -1.284205
  P       2.454506     -1.329977     -0.378226
  C       3.224832     -0.036886      0.597932
  O       2.248094     -2.629311      0.334822
  F       3.605413     -1.554940     -1.490945
  H      -0.841943      2.661881      0.019801
  H      -1.381659      1.929389      1.554176
  H      -2.562664      2.720471      0.485302
  H      -2.228490      0.967600     -1.255016
  H      -2.748768      0.246244      0.248070
  H       0.253987     -1.614380      0.793185
  H       0.121395     -0.101732      1.697423
  H      -2.297006     -0.586590      2.165976
  H      -1.286173     -1.979059      2.588062
  H      -2.230743     -2.005192      1.081995
  H      -0.402647      1.659302     -2.376380
  H      -1.259598      0.197019     -2.920255
  H       0.476959      0.407478     -3.292463
  H       4.162394     -0.421472      1.022806
  H       3.430615      0.838358     -0.032148
  H       2.551285      0.251226      1.416841
28
Coordinates from ORCA-job opt E -901.732311780402
  C      -1.667544      2.094451      0.477002
  C      -1.926360      0.768434     -0.226436
  N      -0.751263     -0.107645     -0.231412
  C      -0.423328     -0.790092      1.024145
  C      -1.628350     -1.349140      1.765541
  C       0.117218     -0.111003     -1.264612
  C      -0.296874      0.596845     -2.535273
  N       1.282945     -0.686291     -1.283853
  P       2.454573     -1.330178     -0.383968
  C       3.229488     -0.054704      0.611991
  O       2.239667     -2.638573      0.309201
  F       3.605551     -1.545466     -1.498878
  H      -0.863097      2.656326     -0.021857
  H      -1.379093      1.940574      1.527901
  H      -2.578478      2.710548      0.463947
  H      -2.255011      0.933563     -1.257204
  H      -2.749007      0.231253      0.262890
  H       0.246803     -1.623576      0.785849
  H       0.138099     -0.104275      1.683960
  H      -2.273868     -0.567547      2.191008
  H      -1.269375     -1.967843      2.600389
  H      -2.238059     -1.988891      1.109312
  H      -0.418842      1.676081     -2.361505
  H      -1.246730      0.205929     -2.927551
  H       0.489270      0.447416     -3.281747
  H       4.165120     -0.449731      1.031531
  H       3.440009      0.828890     -0.004636
  H       2.556536      0.224646      1.434264
28
Coordinates from ORCA-job opt E -901.732360937720
  C      -1.691869      2.086294      0.463738
  C      -1.935428      0.754086     -0.234053
  N      -0.748878     -0.106399     -0.237331
  C      -0.412861     -0.779707      1.021639
  C      -1.610390     -1.328953      1.781605
  C       0.121324     -0.097464     -1.267530
  C      -0.296115      0.613003     -2.536144
  N       1.293839     -0.659785     -1.289808
  P       2.452668     -1.332917     -0.392760
  C       3.234524     -0.082107      0.629473
  O       2.220875     -2.651222      0.274896
  F       3.606239     -1.540044     -1.506795
  H      -0.890550      2.653268     -0.034423
  H      -1.405167      1.940570      1.516341
  H      -2.608055      2.694419      0.444951
  H      -2.269495      0.910872     -1.264451
  H      -2.750387      0.209903      0.259885
  H       0.250335     -1.618970      0.782972
  H       0.157184     -0.090366      1.670114
  H      -2.248543     -0.542471      2.209313
  H      -1.242064     -1.941648      2.616650
  H      -2.229929     -1.971922      1.137802
  H      -0.438599      1.689386     -2.361020
  H      -1.237302      0.206736     -2.934234
  H       0.495757      0.478241     -3.279182
  H       4.163846     -0.493992      1.047053
  H       3.458650      0.809238      0.028925
  H       2.560388      0.191951      1.452373
28
Coordinates from ORCA-job opt E -901.732391059832
  C      -1.719596      2.079500      0.460914
  C      -1.942204      0.746086     -0.241804
  N      -0.745173     -0.099867     -0.239712
  C      -0.403918     -0.763168      1.023390
  C      -1.596162     -1.314652      1.790141
  C       0.125729     -0.084853     -1.268539
  C      -0.296401      0.623126     -2.537448
  N       1.304195     -0.635915     -1.293598
  P       2.449884     -1.336212     -0.398210
  C       3.248759     -0.107440      0.637831
  O       2.197369     -2.657819      0.254795
  F       3.602275     -1.548740     -1.512525
  H      -0.917469      2.654800     -0.026338
  H      -1.444205      1.935484      1.516823
  H      -2.640906      2.679416      0.431854
  H      -2.271450      0.902665     -1.273720
  H      -2.754515      0.191573      0.245025
  H       0.262180     -1.601528      0.789383
  H       0.162635     -0.065538      1.665839
  H      -2.240417     -0.529549      2.211236
  H      -1.220578     -1.915579      2.630493
  H      -2.210992     -1.969459      1.153801
  H      -0.455082      1.697471     -2.364219
  H      -1.230748      0.203477     -2.938043
  H       0.499162      0.498016     -3.278205
  H       4.170524     -0.537829      1.053653
  H       3.489273      0.785258      0.045536
  H       2.577833      0.171275      1.461649
28
Coordinates from ORCA-job opt E -901.732410341652
  C      -1.734817      2.075576      0.460051
  C      -1.946196      0.741704     -0.245429
  N      -0.743863     -0.096431     -0.241351
  C      -0.398175     -0.754081      1.023466
  C      -1.587567     -1.306590      1.794409
  C       0.127663     -0.077508     -1.269840
  C      -0.297524      0.627872     -2.539391
  N       1.310201     -0.620003     -1.293860
  P       2.447972     -1.336705     -0.401443
  C       3.256925     -0.122119      0.643128
  O       2.182906     -2.659759      0.243901
  F       3.600017     -1.553563     -1.515236
  H      -0.932413      2.655032     -0.021964
  H      -1.465351      1.932807      1.517695
  H      -2.658748      2.671148      0.425374
  H      -2.272689      0.899289     -1.277994
  H      -2.757041      0.180686      0.236838
  H       0.269212     -1.591790      0.791584
  H       0.167012     -0.051407      1.661803
  H      -2.235584     -0.522163      2.211066
  H      -1.207458     -1.899979      2.638205
  H      -2.199449     -1.969142      1.163273
  H      -0.464888      1.700954     -2.366455
  H      -1.227988      0.200971     -2.941479
  H       0.500029      0.508339     -3.279009
  H       4.172827     -0.563827      1.060090
  H       3.508840      0.771210      0.056394
  H       2.586145      0.159482      1.466176
28
Coordinates from ORCA-job opt E -901.732422966658
  C      -1.757111      2.069828      0.456355
  C      -1.953467      0.734745     -0.251314
  N      -0.744761     -0.093835     -0.242307
  C      -0.394221     -0.742442      1.025987
  C      -1.580464     -1.296017      1.801421
  C       0.129951     -0.068299     -1.268265
  C      -0.296559      0.636067     -2.537931
  N       1.316674     -0.601500     -1.288971
  P       2.448640     -1.338057     -0.406395
  C       3.273672     -0.141613      0.645846
  O       2.171046     -2.663124      0.229905
  F       3.596380     -1.558992     -1.524229
  H      -0.954839      2.654231     -0.019999
  H      -1.495078      1.929767      1.516244
  H      -2.684626      2.659262      0.413879
  H      -2.274685      0.892603     -1.285557
  H      -2.762971      0.165765      0.224084
  H       0.276261     -1.578696      0.798861
  H       0.168085     -0.032204      1.658602
  H      -2.233798     -0.512319      2.211037
  H      -1.195533     -1.879057      2.650362
  H      -2.187716     -1.968969      1.176915
  H      -0.470199      1.707848     -2.362963
  H      -1.223556      0.204822     -2.943252
  H       0.503548      0.522319     -3.275780
  H       4.183264     -0.597187      1.061570
  H       3.537143      0.752875      0.065949
  H       2.604921      0.142179      1.469945
28
Coordinates from ORCA-job opt E -901.732435290521
  C      -1.769465      2.066106      0.455750
  C      -1.958373      0.731073     -0.254023
  N      -0.746476     -0.092658     -0.243406
  C      -0.392169     -0.736846      1.026171
  C      -1.576413     -1.290139      1.804753
  C       0.130235     -0.063729     -1.268022
  C      -0.295022      0.639626     -2.538509
  N       1.319298     -0.590638     -1.282927
  P       2.448779     -1.337935     -0.408097
  C       3.283478     -0.151189      0.646900
  O       2.163675     -2.663209      0.224892
  F       3.592909     -1.562938     -1.529121
  H      -0.968702      2.654002     -0.018795
  H      -1.509351      1.926741      1.516172
  H      -2.699383      2.651557      0.411282
  H      -2.276933      0.889891     -1.288864
  H      -2.766932      0.157367      0.217511
  H       0.279847     -1.572358      0.800746
  H       0.169684     -0.023070      1.655256
  H      -2.231799     -0.506262      2.210705
  H      -1.189203     -1.867889      2.656287
  H      -2.182012     -1.968046      1.184077
  H      -0.467450      1.711494     -2.362449
  H      -1.221768      0.209565     -2.945287
  H       0.506027      0.526085     -3.275401
  H       4.188924     -0.614304      1.063162
  H       3.553623      0.743499      0.070469
  H       2.614973      0.134203      1.470768
28
Coordinates from ORCA-job opt E -901.732437332312
  C      -1.778825      2.063526      0.452439
  C      -1.962517      0.727499     -0.256734
  N      -0.748256     -0.092922     -0.243557
  C      -0.392550     -0.733960      1.027313
  C      -1.575646     -1.285445      1.808648
  C       0.130871     -0.060364     -1.266059
  C      -0.292512      0.643947     -2.536464
  N       1.321070     -0.584103     -1.277380
  P       2.450464     -1.338507     -0.409666
  C       3.292343     -0.158100      0.646584
  O       2.161883     -2.664685      0.219974
  F       3.590692     -1.564096     -1.534750
  H      -0.980821      2.654695     -0.022589
  H      -1.517996      1.925631      1.512833
  H      -2.711328      2.644844      0.407843
  H      -2.279603      0.884323     -1.292365
  H      -2.770085      0.151664      0.213751
  H       0.279576     -1.569796      0.803262
  H       0.170234     -0.018729      1.653932
  H      -2.231083     -0.500602      2.212570
  H      -1.187926     -1.860550      2.661678
  H      -2.181472     -1.965206      1.190236
  H      -0.464592      1.715628     -2.358671
  H      -1.218731      0.215009     -2.945396
  H       0.509750      0.531719     -3.272207
  H       4.196979     -0.625585      1.059599
  H       3.563848      0.737618      0.072506
  H       2.626234      0.126546      1.472668
28
Coordinates from ORCA-job opt E -901.732432098134
  C      -1.780764      2.063020      0.451534
  C      -1.963763      0.726795     -0.257330
  N      -0.749075     -0.093204     -0.243541
  C      -0.393384     -0.734378      1.027199
  C      -1.576394     -1.284564      1.809356
  C       0.130821     -0.059883     -1.265265
  C      -0.291100      0.644982     -2.535758
  N       1.321091     -0.583132     -1.274582
  P       2.451060     -1.338611     -0.409113
  C       3.295159     -0.158552      0.645878
  O       2.161674     -2.664487      0.220755
  F       3.589604     -1.565220     -1.535669
  H      -0.984918      2.656095     -0.024660
  H      -1.517743      1.925068      1.511357
  H      -2.714561      2.642432      0.408938
  H      -2.280782      0.882450     -1.293149
  H      -2.771006      0.151050      0.213753
  H       0.278079     -1.570749      0.802749
  H       0.170829     -0.020009      1.653540
  H      -2.231062     -0.498987      2.213119
  H      -1.189462     -1.859882      2.662531
  H      -2.183094     -1.963581      1.190959
  H      -0.462157      1.716796     -2.357592
  H      -1.217504      0.217199     -2.945383
  H       0.511530      0.532535     -3.271040
  H       4.200708     -0.626320      1.056558
  H       3.565299      0.737262      0.071345
  H       2.630914      0.125878      1.473509
