26
Coordinates from ORCA-job opt E -1157.370330579914
  C          -2.73888251156687      2.20720173437615     -0.65762149462698
  O          -1.96463033977607      1.00088893741818     -0.65550244407977
  P          -1.86133019866179      0.10334609217012      0.64913029397949
  O          -1.66890958235280      0.80489650090391      1.93760890549520
  O          -3.11876681400337     -0.85664308618780      0.54462614634901
  C          -3.52821713265358     -1.68319567746935      1.64129891850579
  O          -0.66513006577691     -0.90782199622209      0.21860247712820
  C           0.64929220179354     -0.58037452779660      0.04394677643714
  C           1.44688179295907     -1.55743220597484     -0.55901726071941
  C           2.79422282635933     -1.30958729450844     -0.77336497143133
  C           3.32143014388846     -0.08053935685981     -0.38243796257886
  N           4.74391531959855      0.18868323330551     -0.61099513525477
  O           5.40995098108390     -0.67719077891117     -1.13698558047705
  O           5.18367202092434      1.26352758079770     -0.26268702569075
  C           2.53788730331656      0.89821341892054      0.21990913608873
  C           1.18914396230295      0.64697401424517      0.44078015786170
  H          -2.51601447699385      2.80798568819176      0.23500649959315
  H          -3.81089005100944      1.96645303944998     -0.68843923877893
  H          -2.45748907207418      2.76293218045137     -1.55878183822530
  H          -4.57242830852947     -1.95932491895403      1.45734016212570
  H          -2.90549836309019     -2.58805744615831      1.68046275657163
  H          -3.44964574911047     -1.13260048985338      2.58881653194832
  H           0.99410753606102     -2.50467287872627     -0.85697179612070
  H           3.43551088677584     -2.05567983629189     -1.24272156870951
  H           2.98300328719740      1.84656318968227      0.52115035240490
  H           0.56881442333801      1.39545490400133      0.93603440220439
