26
Coordinates from ORCA-job opt E -2018.592765846940
  C      -2.901950      2.228927     -0.539375
  O      -1.955648      1.186866     -0.656296
  P      -1.838719      0.177409      0.595806
  O      -1.645829      0.840845      1.925343
  O      -3.193107     -0.692053      0.479947
  C      -3.410692     -1.654167      1.491412
  O      -0.694681     -0.863598      0.150775
  C       0.628870     -0.558279      0.009936
  C       1.440224     -1.586902     -0.477154
  C       2.810152     -1.382406     -0.659070
  C       3.364985     -0.135569     -0.346904
  N       4.803628      0.089854     -0.534796
  O       5.485190     -0.856240     -0.954801
  O       5.251794      1.212825     -0.263103
  C       2.556662      0.898154      0.144132
  C       1.185674      0.681835      0.321903
  H      -2.625467      2.896621      0.280977
  H      -3.900652      1.819486     -0.365521
  H      -2.911833      2.800118     -1.471030
  H      -4.320747     -2.211483      1.255802
  H      -2.570940     -2.352685      1.539622
  H      -3.539464     -1.159780      2.457938
  H       1.003601     -2.553630     -0.719171
  H       3.422321     -2.196710     -1.040989
  H       2.973988      1.871865      0.394264
  H       0.582643      1.498700      0.709539
26
Coordinates from ORCA-job opt E -1157.370020446058
  C      -2.487742      2.186786     -0.666357
  O      -1.836594      0.912203     -0.590277
  P      -1.873164      0.045046      0.737939
  O      -1.819185      0.780345      2.021917
  O      -3.112910     -0.921210      0.530462
  C      -3.631975     -1.724419      1.597497
  O      -0.640246     -0.976653      0.461029
  C       0.644833     -0.606697      0.170812
  C       1.432125     -1.564874     -0.472111
  C       2.756337     -1.278376     -0.768958
  C       3.263139     -0.024488     -0.435246
  N       4.657986      0.288137     -0.760522
  O       5.323358     -0.570514     -1.298835
  O       5.076738      1.389513     -0.474977
  C       2.484990      0.941535      0.194576
  C       1.166006      0.644289      0.514702
  H      -2.282287      2.776343      0.237812
  H      -3.571559      2.049707     -0.785486
  H      -2.078307      2.697295     -1.544843
  H      -4.649131     -2.013391      1.310284
  H      -3.011996     -2.622918      1.725474
  H      -3.657710     -1.151278      2.534388
  H       0.993796     -2.530865     -0.728533
  H       3.392628     -2.008636     -1.269123
  H       2.915875      1.909693      0.450028
  H       0.544995      1.373427      1.037537
26
Coordinates from ORCA-job opt E -1157.370154332517
  C      -2.517288      2.197856     -0.671162
  O      -1.870343      0.920182     -0.611494
  P      -1.878186      0.053736      0.717745
  O      -1.798389      0.789937      1.999284
  O      -3.121105     -0.913803      0.534886
  C      -3.609669     -1.726518      1.608783
  O      -0.649525     -0.968117      0.421068
  C       0.640899     -0.604654      0.151886
  C       1.431841     -1.566351     -0.481393
  C       2.758474     -1.282396     -0.769561
  C       3.267461     -0.031920     -0.426196
  N       4.666769      0.275988     -0.735933
  O       5.332317     -0.581747     -1.275466
  O       5.088241      1.373087     -0.438211
  C       2.488296      0.934276      0.202117
  C       1.163664      0.643785      0.503290
  H      -2.289800      2.784923      0.229285
  H      -3.604005      2.065502     -0.766693
  H      -2.124917      2.708116     -1.557574
  H      -4.634405     -2.014154      1.348468
  H      -2.985731     -2.625585      1.711099
  H      -3.608634     -1.161232      2.550869
  H       0.992359     -2.530320     -0.743222
  H       3.396675     -2.014662     -1.264211
  H       2.920870      1.899642      0.465155
  H       0.544133      1.374427      1.026370
26
Coordinates from ORCA-job opt E -1157.370248153501
  C      -2.574320      2.219682     -0.680350
  O      -1.935056      0.936872     -0.648567
  P      -1.887504      0.072869      0.681295
  O      -1.755050      0.811039      1.956541
  O      -3.135093     -0.896632      0.546493
  C      -3.559823     -1.731949      1.629942
  O      -0.669907     -0.949180      0.341709
  C       0.631033     -0.600364      0.116137
  C       1.427689     -1.567105     -0.503176
  C       2.761317     -1.291826     -0.766489
  C       3.273546     -0.046771     -0.408324
  N       4.680539      0.252103     -0.690648
  O       5.349593     -0.608264     -1.221689
  O       5.109801      1.337022     -0.361187
  C       2.490929      0.921405      0.212710
  C       1.157497      0.641963      0.483775
  H      -2.309049      2.803288      0.211881
  H      -3.664764      2.094970     -0.734801
  H      -2.212449      2.729089     -1.580153
  H      -4.598451     -2.014672      1.425484
  H      -2.931675     -2.632838      1.675618
  H      -3.502229     -1.186120      2.581873
  H       0.985580     -2.526535     -0.776894
  H       3.402678     -2.028220     -1.250780
  H       2.926025      1.882066      0.488381
  H       0.539142      1.378108      1.000409
26
Coordinates from ORCA-job opt E -1157.370104147935
  C      -2.610297      2.232706     -0.685845
  O      -1.971466      0.949214     -0.667707
  P      -1.892633      0.086248      0.661138
  O      -1.731190      0.824913      1.932374
  O      -3.141035     -0.885103      0.551419
  C      -3.528941     -1.734874      1.637534
  O      -0.681501     -0.934747      0.296152
  C       0.625836     -0.596797      0.098661
  C       1.425117     -1.567743     -0.511623
  C       2.763879     -1.300765     -0.756798
  C       3.279936     -0.060325     -0.388170
  N       4.692411      0.230025     -0.651287
  O       5.351370     -0.616394     -1.216407
  O       5.116202      1.323033     -0.342109
  C       2.495632      0.910795      0.226104
  C       1.156275      0.640527      0.477376
  H      -2.330318      2.814744      0.202845
  H      -3.701528      2.108356     -0.722515
  H      -2.263444      2.743624     -1.590718
  H      -4.573846     -2.015357      1.464589
  H      -2.899652     -2.636097      1.650017
  H      -3.439729     -1.201346      2.594090
  H       0.980216     -2.523591     -0.793289
  H       3.406237     -2.040971     -1.233936
  H       2.933393      1.867772      0.510172
  H       0.539077      1.382153      0.987119
26
Coordinates from ORCA-job opt E -1157.370290862986
  C      -2.603283      2.226096     -0.683582
  O      -1.957769      0.946200     -0.658693
  P      -1.889581      0.082464      0.670234
  O      -1.738116      0.820488      1.943492
  O      -3.137792     -0.887891      0.551710
  C      -3.539034     -1.732407      1.637323
  O      -0.676996     -0.938733      0.311060
  C       0.627737     -0.595409      0.099847
  C       1.425633     -1.564746     -0.514440
  C       2.763155     -1.296350     -0.764375
  C       3.279145     -0.055379     -0.397524
  N       4.690306      0.236388     -0.666131
  O       5.356005     -0.620693     -1.206759
  O       5.121082      1.320445     -0.335677
  C       2.495681      0.915184      0.218540
  C       1.157797      0.642801      0.475968
  H      -2.336494      2.808849      0.208733
  H      -3.693350      2.096020     -0.732876
  H      -2.248823      2.739683     -1.583987
  H      -4.581631     -2.013903      1.452344
  H      -2.909786     -2.633331      1.662518
  H      -3.462275     -1.194444      2.592353
  H       0.981095     -2.521391     -0.794053
  H       3.404735     -2.035431     -1.244311
  H       2.933338      1.872676      0.501125
  H       0.539223      1.382816      0.986348
26
Coordinates from ORCA-job opt E -1157.370293989481
  C      -2.611100      2.225439     -0.683429
  O      -1.958516      0.949224     -0.657867
  P      -1.888343      0.084448      0.670226
  O      -1.734766      0.821384      1.944000
  O      -3.136868     -0.885424      0.552665
  C      -3.536554     -1.730741      1.638380
  O      -0.677009     -0.936592      0.306641
  C       0.628367     -0.593960      0.097121
  C       1.425849     -1.563617     -0.517304
  C       2.763998     -1.296968     -0.765272
  C       3.281264     -0.057029     -0.396591
  N       4.693140      0.232850     -0.662946
  O       5.358343     -0.624771     -1.203287
  O       5.125352      1.315434     -0.329583
  C       2.498033      0.914230      0.218507
  C       1.159362      0.643539      0.474089
  H      -2.352828      2.807513      0.211847
  H      -3.700098      2.089209     -0.739410
  H      -2.254523      2.743430     -1.580480
  H      -4.579308     -2.012271      1.454325
  H      -2.907051     -2.631502      1.662449
  H      -3.459114     -1.193424      2.593706
  H       0.980405     -2.519466     -0.798252
  H       3.405115     -2.036555     -1.245048
  H       2.936465      1.871019      0.502321
  H       0.540386      1.384600      0.982379
26
Coordinates from ORCA-job opt E -1157.370305752471
  C      -2.643858      2.224728     -0.682714
  O      -1.966822      0.961572     -0.658885
  P      -1.884379      0.092520      0.665584
  O      -1.718307      0.825115      1.940560
  O      -3.134409     -0.876030      0.556384
  C      -3.524256     -1.724139      1.643790
  O      -0.678252     -0.927359      0.282729
  C       0.629893     -0.588604      0.082804
  C       1.426834     -1.560418     -0.529299
  C       2.767864     -1.300543     -0.767421
  C       3.289285     -0.064317     -0.391518
  N       4.704500      0.218433     -0.646749
  O       5.368235     -0.640186     -1.187263
  O       5.141100      1.296194     -0.303557
  C       2.506367      0.909463      0.219525
  C       1.164290      0.645579      0.465238
  H      -2.411486      2.802779      0.222268
  H      -3.728875      2.067360     -0.757692
  H      -2.283898      2.759310     -1.568648
  H      -4.568153     -2.006242      1.467239
  H      -2.893439     -2.624097      1.661333
  H      -3.440522     -1.188784      2.599677
  H       0.978309     -2.513230     -0.815731
  H       3.408048     -2.042327     -1.245029
  H       2.947431      1.863398      0.508893
  H       0.544499      1.389826      0.967673
26
Coordinates from ORCA-job opt E -1157.370309975711
  C      -2.669700      2.224133     -0.680971
  O      -1.974005      0.971240     -0.661038
  P      -1.881207      0.098137      0.660062
  O      -1.705029      0.826676      1.936046
  O      -3.132386     -0.869737      0.558135
  C      -3.515804     -1.717990      1.647761
  O      -0.678636     -0.920289      0.262894
  C       0.631637     -0.584997      0.071046
  C       1.428477     -1.558725     -0.538374
  C       2.771668     -1.303574     -0.768794
  C       3.295680     -0.069917     -0.387765
  N       4.713451      0.207719     -0.634133
  O       5.376470     -0.651671     -1.174317
  O       5.152738      1.282388     -0.284683
  C       2.512841      0.905733      0.220210
  C       1.168297      0.646768      0.457901
  H      -2.454652      2.797874      0.231037
  H      -3.751410      2.050836     -0.767652
  H      -2.309865      2.772170     -1.558729
  H      -4.560190     -2.001430      1.476357
  H      -2.883678     -2.617068      1.662714
  H      -3.428288     -1.182114      2.603013
  H       0.978013     -2.509496     -0.828557
  H       3.411645     -2.047111     -1.243951
  H       2.955625      1.857631      0.513651
  H       0.548307      1.392813      0.957325
26
Coordinates from ORCA-job opt E -1157.370314386801
  C      -2.702615      2.221751     -0.676722
  O      -1.980774      0.983745     -0.663300
  P      -1.876136      0.104119      0.652617
  O      -1.688216      0.825926      1.930713
  O      -3.128900     -0.862767      0.558577
  C      -3.508542     -1.707834      1.651915
  O      -0.677451     -0.911812      0.238427
  C       0.635308     -0.580990      0.056195
  C       1.432063     -1.557175     -0.549548
  C       2.777788     -1.307379     -0.770715
  C       3.304542     -0.076659     -0.383860
  N       4.725309      0.195020     -0.619604
  O       5.387856     -0.665740     -1.158228
  O       5.167268      1.266673     -0.264276
  C       2.521801      0.901256      0.220539
  C       1.174472      0.647958      0.448457
  H      -2.510604      2.788482      0.244789
  H      -3.779224      2.026305     -0.778429
  H      -2.344679      2.788919     -1.543065
  H      -4.552646     -1.994081      1.483518
  H      -2.874502     -2.605526      1.669117
  H      -3.420255     -1.168119      2.604920
  H       0.979512     -2.505646     -0.843974
  H       3.417813     -2.052986     -1.242549
  H       2.966458      1.850844      0.518598
  H       0.554354      1.395715      0.945075
26
Coordinates from ORCA-job opt E -1157.370316736071
  C      -2.714733      2.218234     -0.672612
  O      -1.978208      0.988819     -0.662134
  P      -1.872307      0.104650      0.650721
  O      -1.681735      0.821406      1.931210
  O      -3.126385     -0.860831      0.556644
  C      -3.511531     -1.700490      1.652088
  O      -0.674574     -0.909990      0.231271
  C       0.638888     -0.580657      0.051657
  C       1.435628     -1.557506     -0.552933
  C       2.781951     -1.308639     -0.771926
  C       3.309079     -0.078516     -0.383862
  N       4.730552      0.191964     -0.617145
  O       5.393436     -0.669702     -1.153938
  O       5.172587      1.263748     -0.262323
  C       2.526358      0.899928      0.219832
  C       1.178476      0.647723      0.445290
  H      -2.536159      2.780855      0.254108
  H      -3.788130      2.010389     -0.783245
  H      -2.357715      2.795918     -1.532357
  H      -4.554427     -1.988530      1.479351
  H      -2.876988     -2.597647      1.677499
  H      -3.428646     -1.155646      2.602637
  H       0.982747     -2.505507     -0.848320
  H       3.422283     -2.054605     -1.242777
  H       2.971295      1.849111      0.518731
  H       0.558258      1.395523      0.941718
26
Coordinates from ORCA-job opt E -1157.370320118556
  C      -2.717066      2.212430     -0.667248
  O      -1.967809      0.990524     -0.657497
  P      -1.867677      0.101626      0.652770
  O      -1.679846      0.812720      1.936768
  O      -3.123453     -0.861308      0.552601
  C      -3.522838     -1.692328      1.649395
  O      -0.669420     -0.912286      0.233932
  C       0.643687     -0.582654      0.052703
  C       1.440458     -1.559089     -0.552229
  C       2.786274     -1.308545     -0.773185
  C       3.312425     -0.077667     -0.386603
  N       4.733232      0.194515     -0.622409
  O       5.397150     -0.668042     -1.156503
  O       5.173603      1.268560     -0.272450
  C       2.529697      0.900245      0.218177
  C       1.182559      0.646393      0.445554
  H      -2.550773      2.772289      0.263427
  H      -3.787461      1.993835     -0.786104
  H      -2.360366      2.798105     -1.521675
  H      -4.563551     -1.981390      1.465564
  H      -2.889266     -2.589648      1.689617
  H      -3.451262     -1.140137      2.596593
  H       0.988279     -2.507697     -0.846682
  H       3.427072     -2.053824     -1.244486
  H       2.974064      1.850069      0.515850
  H       0.562287      1.393306      0.943307
26
Coordinates from ORCA-job opt E -1157.370321138802
  C      -2.715575      2.210943     -0.666041
  O      -1.964589      0.989996     -0.655946
  P      -1.866717      0.100454      0.654126
  O      -1.680376      0.810593      1.938876
  O      -3.122737     -0.861805      0.551431
  C      -3.526357     -1.690931      1.648151
  O      -0.668101     -0.913426      0.236511
  C       0.644662     -0.583321      0.054026
  C       1.441454     -1.559423     -0.551364
  C       2.786965     -1.308168     -0.773454
  C       3.312780     -0.076953     -0.387601
  N       4.733196      0.196015     -0.624762
  O       5.397579     -0.666941     -1.157616
  O       5.172870      1.270938     -0.276645
  C       2.530045      0.900673      0.217682
  C       1.183278      0.646042      0.446316
  H      -2.549605      2.771598      0.264212
  H      -3.785750      1.990851     -0.784247
  H      -2.360061      2.796432     -1.521079
  H      -4.566684     -1.979382      1.461187
  H      -2.893700     -2.588731      1.691646
  H      -3.457427     -1.137462      2.594791
  H       0.989592     -2.508357     -0.845255
  H       3.427796     -2.053196     -1.245114
  H       2.974269      1.850709      0.514889
  H       0.563191      1.392852      0.944467
26
Coordinates from ORCA-job opt E -1157.370320398742
  C      -2.716033      2.209270     -0.664520
  O      -1.962067      0.990018     -0.654562
  P      -1.865529      0.099742      0.655266
  O      -1.679827      0.808726      1.940759
  O      -3.121697     -0.861802      0.550133
  C      -3.529362     -1.689295      1.646740
  O      -0.666787     -0.913912      0.237797
  C       0.645703     -0.583531      0.054538
  C       1.442547     -1.559350     -0.551253
  C       2.787920     -1.307856     -0.773812
  C       3.313700     -0.076575     -0.388193
  N       4.733923      0.196675     -0.625882
  O       5.398921     -0.667096     -1.156611
  O       5.172981      1.272435     -0.279571
  C       2.530927      0.900905      0.217301
  C       1.184321      0.645919      0.446580
  H      -2.547763      2.772502      0.263756
  H      -3.786180      1.986504     -0.778090
  H      -2.365174      2.793284     -1.522470
  H      -4.569732     -1.975983      1.457291
  H      -2.898413     -2.588164      1.692365
  H      -3.461836     -1.135166      2.593078
  H       0.990852     -2.508429     -0.844946
  H       3.428660     -2.052837     -1.245677
  H       2.975263      1.850902      0.514463
  H       0.564681      1.393117      0.944705
26
Coordinates from ORCA-job opt E -1157.370321610349
  C      -2.716982      2.208448     -0.663383
  O      -1.961239      0.990192     -0.654125
  P      -1.864875      0.099531      0.655656
  O      -1.678972      0.807840      1.941486
  O      -3.121038     -0.861578      0.549075
  C      -3.530880     -1.688620      1.645379
  O      -0.666147     -0.913932      0.237764
  C       0.646235     -0.583486      0.054531
  C       1.443263     -1.559111     -0.551398
  C       2.788654     -1.307694     -0.773753
  C       3.314494     -0.076476     -0.387995
  N       4.734678      0.196791     -0.625597
  O       5.400326     -0.667894     -1.153986
  O       5.173145      1.273427     -0.281222
  C       2.531550      0.900933      0.217402
  C       1.184914      0.645903      0.446625
  H      -2.541339      2.776457      0.260602
  H      -3.787847      1.983948     -0.766579
  H      -2.374342      2.788398     -1.527378
  H      -4.571962     -1.972471      1.455549
  H      -2.902172     -2.589058      1.690398
  H      -3.462119     -1.135165      2.592002
  H       0.991642     -2.508176     -0.845283
  H       3.429285     -2.052732     -1.245686
  H       2.976008      1.850835      0.514693
  H       0.565718      1.393690      0.944410
26
Coordinates from ORCA-job opt E -1157.370325040136
  C      -2.722763      2.207041     -0.660387
  O      -1.961610      0.991999     -0.654393
  P      -1.863375      0.099949      0.654839
  O      -1.675149      0.806339      1.941336
  O      -3.119559     -0.860349      0.546598
  C      -3.532584     -1.687006      1.642359
  O      -0.665109     -0.912761      0.233720
  C       0.647394     -0.582653      0.052145
  C       1.445019     -1.558109     -0.553463
  C       2.790883     -1.307654     -0.773580
  C       3.317135     -0.077029     -0.386354
  N       4.737765      0.195344     -0.621537
  O       5.405183     -0.671979     -1.143283
  O       5.174996      1.273860     -0.281398
  C       2.533592      0.900493      0.218063
  C       1.186425      0.646166      0.445350
  H      -2.522664      2.790175      0.249092
  H      -3.795417      1.977499     -0.729052
  H      -2.407703      2.774104     -1.543196
  H      -4.576180     -1.962725      1.454336
  H      -2.910054     -2.591858      1.683182
  H      -3.457555     -1.136272      2.590047
  H       0.993334     -2.506756     -0.848659
  H       3.431372     -2.053121     -1.245041
  H       2.978475      1.849851      0.516488
  H       0.568148      1.395450      0.941976
26
Coordinates from ORCA-job opt E -1157.370326115392
  C      -2.732597      2.205810     -0.657549
  O      -1.963170      0.996006     -0.655090
  P      -1.861580      0.101431      0.652490
  O      -1.669857      0.805106      1.939901
  O      -3.118148     -0.858231      0.544828
  C      -3.532208     -1.684332      1.640746
  O      -0.664333     -0.910275      0.225897
  C       0.648848     -0.581252      0.047605
  C       1.446838     -1.557093     -0.557028
  C       2.793527     -1.308305     -0.773692
  C       3.320485     -0.078641     -0.384218
  N       4.742062      0.191942     -0.615423
  O       5.410562     -0.677425     -1.132365
  O       5.179000      1.271152     -0.277061
  C       2.536539      0.899396      0.218795
  C       1.188472      0.646653      0.442716
  H      -2.515767      2.800721      0.240419
  H      -3.805139      1.969070     -0.699381
  H      -2.441286      2.764630     -1.553649
  H      -4.577754     -1.954447      1.455453
  H      -2.913963     -2.592227      1.678206
  H      -3.451541     -1.135310      2.588942
  H       0.994680     -2.504931     -0.854125
  H       3.434023     -2.054387     -1.244169
  H       2.981898      1.848028      0.518841
  H       0.570409      1.396910      0.938096
26
Coordinates from ORCA-job opt E -1157.370328565101
  C      -2.742119      2.205464     -0.656640
  O      -1.965017      1.000834     -0.655627
  P      -1.860357      0.103576      0.649747
  O      -1.665737      0.804992      1.937928
  O      -3.117587     -0.855965      0.544973
  C      -3.529297     -1.681884      1.641673
  O      -0.664348     -0.907437      0.217796
  C       0.649866     -0.579866      0.043092
  C       1.447677     -1.556618     -0.560295
  C       2.795163     -1.309505     -0.773991
  C       3.322850     -0.080730     -0.382572
  N       4.745441      0.187911     -0.610218
  O       5.413428     -0.681532     -1.127759
  O       5.183512      1.265887     -0.269427
  C       2.539026      0.898047      0.219323
  C       1.190086      0.647194      0.439978
  H      -2.527364      2.801664      0.241016
  H      -3.813237      1.962019     -0.696595
  H      -2.455953      2.766867     -1.552786
  H      -4.575169     -1.952454      1.458949
  H      -2.910661     -2.589576      1.678267
  H      -3.446561     -1.132615      2.589568
  H       0.994735     -2.503575     -0.858975
  H       3.435787     -2.056095     -1.243469
  H       2.984658      1.846150      0.520630
  H       0.571179      1.397245      0.934598
26
Coordinates from ORCA-job opt E -1157.370330643369
  C      -2.734221      2.208698     -0.659098
  O      -1.965954      0.998745     -0.656771
  P      -1.862826      0.102772      0.649198
  O      -1.670613      0.806523      1.936437
  O      -3.119897     -0.857733      0.545913
  C      -3.527361     -1.686158      1.641904
  O      -0.666247     -0.909187      0.220296
  C       0.647967     -0.580834      0.045153
  C       1.445895     -1.557517     -0.558075
  C       2.793034     -1.309186     -0.772933
  C       3.319710     -0.079667     -0.382456
  N       4.742014      0.190172     -0.611197
  O       5.409401     -0.677384     -1.132729
  O       5.180234      1.267341     -0.268152
  C       2.535757      0.898722      0.219829
  C       1.187212      0.646888      0.441410
  H      -2.508971      2.808221      0.233795
  H      -3.807376      1.973261     -0.690693
  H      -2.449501      2.763583     -1.559748
  H      -4.573557     -1.957696      1.462522
  H      -2.907645     -2.593303      1.675046
  H      -3.441877     -1.138789      2.590705
  H       0.993378     -2.504886     -0.856019
  H       3.434265     -2.055203     -1.242471
  H       2.980384      1.847548      0.520322
  H       0.566794      1.395071      0.936998
26
Coordinates from ORCA-job opt E -1157.370329969842
  C      -2.739180      2.207102     -0.657701
  O      -1.965004      1.000843     -0.655904
  P      -1.861325      0.103271      0.648873
  O      -1.668277      0.805113      1.937052
  O      -3.118764     -0.856723      0.545206
  C      -3.528145     -1.683360      1.641823
  O      -0.665180     -0.908076      0.217826
  C       0.649247     -0.580308      0.043417
  C       1.447003     -1.557311     -0.559482
  C       2.794402     -1.309582     -0.773486
  C       3.321489     -0.080467     -0.382433
  N       4.744047      0.188725     -0.610396
  O       5.411280     -0.678996     -1.131838
  O       5.182667      1.265426     -0.266420
  C       2.537749      0.898220      0.219682
  C       1.188954      0.647019      0.440393
  H      -2.519125      2.805884      0.236981
  H      -3.811080      1.966442     -0.692436
  H      -2.455024      2.765216     -1.556534
  H      -4.573773     -1.955796      1.460469
  H      -2.908106     -2.590170      1.678031
  H      -3.445096     -1.134238      2.589819
  H       0.994226     -2.504464     -0.857722
  H       3.435622     -2.055814     -1.242701
  H       2.982750      1.846655      0.520845
  H       0.568644      1.395389      0.935821
26
Coordinates from ORCA-job opt E -1157.370330089892
  C      -2.739907      2.206744     -0.657241
  O      -1.964603      1.001153     -0.655606
  P      -1.860985      0.103256      0.648902
  O      -1.667992      0.804602      1.937377
  O      -3.118472     -0.856600      0.544738
  C      -3.528611     -1.682755      1.641450
  O      -0.664880     -0.907904      0.217618
  C       0.649563     -0.580283      0.043305
  C       1.447287     -1.557313     -0.559571
  C       2.794707     -1.309609     -0.773518
  C       3.321851     -0.080561     -0.382427
  N       4.744408      0.188608     -0.610469
  O       5.411511     -0.678916     -1.132387
  O       5.183176      1.265043     -0.265856
  C       2.538163      0.898169      0.219719
  C       1.189355      0.647006      0.440357
  H      -2.518863      2.806607      0.236468
  H      -3.811660      1.965106     -0.689905
  H      -2.457779      2.764108     -1.557174
  H      -4.573980     -1.955577      1.459160
  H      -2.908425     -2.589420      1.678738
  H      -3.446664     -1.133137      2.589250
  H       0.994508     -2.504477     -0.857771
  H       3.435966     -2.055835     -1.242694
  H       2.983246      1.846516      0.521033
  H       0.569080      1.395469      0.935694
26
Coordinates from ORCA-job opt E -1157.370330748634
  C      -2.739215      2.206926     -0.657376
  O      -1.964482      1.000921     -0.655459
  P      -1.861136      0.103204      0.649072
  O      -1.668603      0.804609      1.937610
  O      -3.118565     -0.856731      0.544571
  C      -3.528567     -1.682921      1.641302
  O      -0.664951     -0.907916      0.218282
  C       0.649459     -0.580368      0.043722
  C       1.447102     -1.557400     -0.559220
  C       2.794465     -1.309559     -0.773443
  C       3.321613     -0.080496     -0.382509
  N       4.744105      0.188772     -0.610955
  O       5.410721     -0.677968     -1.134779
  O       5.183307      1.264474     -0.264610
  C       2.538021      0.898245      0.219787
  C       1.189279      0.646974      0.440649
  H      -2.517276      2.807263      0.235787
  H      -3.811105      1.965780     -0.689155
  H      -2.457379      2.763396     -1.557948
  H      -4.573360     -1.957312      1.458036
  H      -2.907252     -2.588772      1.679707
  H      -3.448393     -1.132765      2.588939
  H       0.994354     -2.504647     -0.857202
  H       3.435780     -2.055692     -1.242698
  H       2.983125      1.846578      0.521099
  H       0.568954      1.395405      0.935978
26
Coordinates from ORCA-job opt E -1157.370330774801
  C      -2.738610      2.207250     -0.657653
  O      -1.964595      1.000765     -0.655446
  P      -1.861391      0.103284      0.649172
  O      -1.669206      0.804853      1.937689
  O      -3.118763     -0.856781      0.544524
  C      -3.528247     -1.683256      1.641232
  O      -0.665134     -0.907831      0.218834
  C       0.649269     -0.580381      0.044072
  C       1.446829     -1.557446     -0.558903
  C       2.794147     -1.309538     -0.773359
  C       3.321351     -0.080494     -0.382476
  N       4.743818      0.188763     -0.611171
  O       5.409718     -0.676887     -1.137691
  O       5.183697      1.263388     -0.262343
  C       2.537851      0.898265      0.219936
  C       1.189130      0.646988      0.440873
  H      -2.515210      2.808325      0.234642
  H      -3.810682      1.966715     -0.687887
  H      -2.457494      2.762522     -1.559179
  H      -4.572337     -1.959694      1.457035
  H      -2.905349     -2.587984      1.680709
  H      -3.450069     -1.132529      2.588704
  H       0.994070     -2.504724     -0.856761
  H       3.435474     -2.055590     -1.242731
  H       2.982977      1.846595      0.521218
  H       0.568761      1.395421      0.936150
26
Coordinates from ORCA-job opt E -1157.370330579914
  C      -2.738883      2.207202     -0.657621
  O      -1.964630      1.000889     -0.655502
  P      -1.861330      0.103346      0.649130
  O      -1.668910      0.804897      1.937609
  O      -3.118767     -0.856643      0.544626
  C      -3.528217     -1.683196      1.641299
  O      -0.665130     -0.907822      0.218602
  C       0.649292     -0.580375      0.043947
  C       1.446882     -1.557432     -0.559017
  C       2.794223     -1.309587     -0.773365
  C       3.321430     -0.080539     -0.382438
  N       4.743915      0.188683     -0.610995
  O       5.409951     -0.677191     -1.136986
  O       5.183672      1.263528     -0.262687
  C       2.537887      0.898213      0.219909
  C       1.189144      0.646974      0.440780
  H      -2.516014      2.807986      0.235006
  H      -3.810890      1.966453     -0.688439
  H      -2.457489      2.762932     -1.558782
  H      -4.572428     -1.959325      1.457340
  H      -2.905498     -2.588057      1.680463
  H      -3.449646     -1.132600      2.588817
  H       0.994108     -2.504673     -0.856972
  H       3.435511     -2.055680     -1.242722
  H       2.983003      1.846563      0.521150
  H       0.568814      1.395455      0.936034
