25
Coordinates from ORCA-job opt E -903.387702573330
  C          -3.40789772842268     -1.30335404064831     -0.42863641718790
  C          -2.53796589415177     -0.06596437138283     -0.48207257007966
  C          -2.98541372251155      1.05176496804539      0.43845371673025
  O          -1.19375760036358     -0.48381188553347     -0.08840320611315
  P           0.08166799658135      0.12778855203544     -0.78930240997357
  O           0.08957780941355      1.56346123510174     -1.13357130341123
  F           0.21920712014875     -0.75635740180840     -2.10969872771620
  O           1.22329331484824     -0.43954639900242      0.14125533828848
  C           2.58552763516906      0.08549785135199      0.06356604925559
  C           2.74409406738716      1.16912443104073      1.11129618207990
  C           3.51584419808125     -1.09435291904628      0.24467133525449
  H          -3.42937976663504     -1.71460260529437      0.59195874048233
  H          -4.43582776798537     -1.04921116845315     -0.72454088321785
  H          -3.02693932825360     -2.07361249652848     -1.11393119295748
  H          -2.48819492380193      0.30555229504027     -1.51905239779057
  H          -3.99563477112020      1.38411436462321      0.15869773907188
  H          -2.30292225456727      1.90983515616555      0.35988497750298
  H          -3.00575209939016      0.70574577551795      1.48294178951395
  H           2.72516802203559      0.51710429331352     -0.94129523706669
  H           2.02400007314238      1.98073499294935      0.93527973795997
  H           3.75930174387744      1.58920533485876      1.06536114315870
  H           2.57937040256076      0.75734302514726      2.11850462695345
  H           4.56042882879192     -0.75854053867979      0.17503132682777
  H           3.33871717705223     -1.85012633261063     -0.53352102979233
  H           3.36348747811349     -1.55779213620304      1.23126770222690
