25
Coordinates from ORCA-job opt E -903.380123678161
  C      -3.331238     -1.351954     -0.514916
  C      -2.517451     -0.067296     -0.467483
  C      -3.235368      1.011003      0.330423
  O      -1.280156     -0.356127      0.166187
  P       0.046119      0.273907     -0.491113
  O       0.028956      1.753637     -0.711156
  F       0.211788     -0.516689     -1.835643
  O       1.235627     -0.286904      0.435470
  C       2.561373      0.072479      0.076159
  C       3.034554      1.183569      1.001563
  C       3.435420     -1.165717      0.209412
  H      -3.495475     -1.752044      0.491809
  H      -4.302835     -1.190572     -0.991619
  H      -2.791498     -2.123268     -1.075058
  H      -2.345898      0.283365     -1.491926
  H      -4.206286      1.253024     -0.112380
  H      -2.633969      1.925209      0.369383
  H      -3.391198      0.694316      1.367677
  H       2.591563      0.419244     -0.963419
  H       2.389686      2.063458      0.907148
  H       4.062515      1.480636      0.772717
  H       2.984497      0.869776      2.050134
  H       4.475606     -0.948970     -0.051983
  H       3.069105     -1.961995     -0.447668
  H       3.404564     -1.562088      1.230425
25
Coordinates from ORCA-job opt E -903.385029400365
  C      -3.320678     -1.363989     -0.491749
  C      -2.533051     -0.065596     -0.466128
  C      -3.221480      1.024652      0.339347
  O      -1.250565     -0.348542      0.130633
  P       0.051555      0.280369     -0.546494
  O       0.039455      1.744262     -0.801792
  F       0.215541     -0.546340     -1.878296
  O       1.213819     -0.282886      0.392293
  C       2.574904      0.083042      0.084924
  C       3.015926      1.184361      1.035694
  C       3.423176     -1.171107      0.204230
  H      -3.452868     -1.758224      0.527610
  H      -4.310980     -1.209945     -0.941504
  H      -2.785829     -2.128966     -1.075166
  H      -2.389607      0.282640     -1.502737
  H      -4.206939      1.261185     -0.085520
  H      -2.614918      1.942906      0.346820
  H      -3.355640      0.706765      1.384728
  H       2.633237      0.452361     -0.952681
  H       2.370435      2.069448      0.930770
  H       4.053632      1.483278      0.832284
  H       2.945756      0.844129      2.080261
  H       4.474050     -0.952940     -0.029833
  H       3.063795     -1.948368     -0.487365
  H       3.367274     -1.582494      1.223815
25
Coordinates from ORCA-job opt E -903.387136118213
  C      -3.302824     -1.371721     -0.457766
  C      -2.542194     -0.062854     -0.466306
  C      -3.181504      1.039242      0.354331
  O      -1.215301     -0.341325      0.078263
  P       0.059128      0.282504     -0.620253
  O       0.055950      1.723801     -0.932576
  F       0.217507     -0.590136     -1.936586
  O       1.191180     -0.281658      0.329227
  C       2.582768      0.094801      0.091139
  C       2.966105      1.178192      1.078785
  C       3.406340     -1.170997      0.198783
  H      -3.393567     -1.755312      0.571100
  H      -4.312105     -1.223376     -0.868741
  H      -2.783758     -2.126563     -1.067079
  H      -2.427407      0.280386     -1.509810
  H      -4.180476      1.274109     -0.041558
  H      -2.568319      1.952180      0.320157
  H      -3.284800      0.722381      1.404477
  H       2.668404      0.492730     -0.935434
  H       2.318094      2.059193      0.958416
  H       4.009145      1.486029      0.914195
  H       2.867887      0.805828      2.111006
  H       4.465701     -0.946241      0.006564
  H       3.067814     -1.918038     -0.534441
  H       3.316232     -1.603157      1.208252
25
Coordinates from ORCA-job opt E -903.387362679491
  C      -3.317372     -1.363199     -0.446733
  C      -2.545752     -0.061617     -0.469040
  C      -3.154548      1.045848      0.366277
  O      -1.209943     -0.355184      0.051437
  P       0.063748      0.255851     -0.654809
  O       0.066443      1.688123     -1.002701
  F       0.217147     -0.639258     -1.961599
  O       1.194164     -0.298790      0.298536
  C       2.586904      0.099268      0.090166
  C       2.932757      1.174281      1.099624
  C       3.422837     -1.157851      0.196826
  H      -3.397736     -1.743641      0.583351
  H      -4.330896     -1.204237     -0.842634
  H      -2.815030     -2.121050     -1.064732
  H      -2.440372      0.281949     -1.512540
  H      -4.157663      1.292083     -0.011349
  H      -2.531796      1.950650      0.318455
  H      -3.242618      0.728750      1.416954
  H       2.678901      0.511926     -0.929132
  H       2.275052      2.046322      0.974162
  H       3.973974      1.498784      0.958052
  H       2.821266      0.787561      2.124413
  H       4.482035     -0.916649      0.025699
  H       3.106570     -1.896684     -0.553232
  H       3.321927     -1.603237      1.198692
25
Coordinates from ORCA-job opt E -903.387537106653
  C      -3.351837     -1.339541     -0.433687
  C      -2.547171     -0.058619     -0.474190
  C      -3.097037      1.055652      0.392407
  O      -1.203969     -0.391857      0.003043
  P       0.072914      0.192813     -0.716707
  O       0.085551      1.611670     -1.119268
  F       0.217296     -0.738873     -2.005191
  O       1.204495     -0.341394      0.244324
  C       2.589747      0.104776      0.085933
  C       2.863498      1.167969      1.129571
  C       3.461226     -1.127403      0.197515
  H      -3.416857     -1.720632      0.596411
  H      -4.370459     -1.151730     -0.802283
  H      -2.886129     -2.106031     -1.068450
  H      -2.459170      0.290777     -1.516108
  H      -4.105720      1.330475      0.051671
  H      -2.453812      1.944251      0.327230
  H      -3.156926      0.732958      1.442509
  H       2.691582      0.540911     -0.921315
  H       2.182631      2.019917      0.994246
  H       3.897369      1.529274      1.030979
  H       2.729493      0.758116      2.141737
  H       4.516446     -0.850211      0.061638
  H       3.190234     -1.859772     -0.575451
  H       3.346605     -1.593497      1.187581
25
Coordinates from ORCA-job opt E -903.387603558971
  C      -3.380275     -1.317624     -0.431770
  C      -2.543690     -0.057192     -0.476911
  C      -3.044907      1.058477      0.417286
  O      -1.199809     -0.428790     -0.033888
  P       0.079227      0.141524     -0.760719
  O       0.095694      1.554756     -1.186567
  F       0.219531     -0.808481     -2.038293
  O       1.212174     -0.379830      0.205072
  C       2.587185      0.104990      0.080950
  C       2.806021      1.166688      1.139478
  C       3.489917     -1.103209      0.206145
  H      -3.432399     -1.708936      0.595123
  H      -4.401710     -1.099449     -0.774786
  H      -2.949095     -2.088287     -1.085653
  H      -2.469525      0.303362     -1.515749
  H      -4.055414      1.361230      0.106987
  H      -2.383101      1.932942      0.345262
  H      -3.084287      0.724957      1.464843
  H       2.697689      0.551824     -0.920316
  H       2.105320      2.000528      0.992410
  H       3.831358      1.557931      1.070448
  H       2.657425      0.745852      2.144955
  H       4.539943     -0.796644      0.096134
  H       3.256892     -1.838050     -0.576855
  H       3.365835     -1.578571      1.190560
25
Coordinates from ORCA-job opt E -903.387645614852
  C      -3.404948     -1.296755     -0.441687
  C      -2.538476     -0.056100     -0.477414
  C      -2.998688      1.053058      0.446959
  O      -1.197583     -0.466536     -0.065770
  P       0.083195      0.100622     -0.792516
  O       0.098181      1.514204     -1.220929
  F       0.225335     -0.854427     -2.065451
  O       1.217943     -0.413622      0.175317
  C       2.582915      0.100567      0.074406
  C       2.760447      1.172841      1.130678
  C       3.510173     -1.085917      0.225742
  H      -3.444184     -1.710447      0.577176
  H      -4.428019     -1.046064     -0.756422
  H      -3.007865     -2.063428     -1.121769
  H      -2.475349      0.323509     -1.510264
  H      -4.008430      1.383544      0.163399
  H      -2.319647      1.914919      0.378611
  H      -3.023718      0.700849      1.489025
  H       2.703440      0.544300     -0.927176
  H       2.044360      1.990648      0.966756
  H       3.777891      1.586851      1.079578
  H       2.601416      0.754330      2.135747
  H       4.555225     -0.756810      0.135349
  H       3.309971     -1.832189     -0.555920
  H       3.376415     -1.557948      1.210721
25
Coordinates from ORCA-job opt E -903.387676473376
  C      -3.410092     -1.293099     -0.450078
  C      -2.537077     -0.056786     -0.476448
  C      -2.991633      1.047889      0.456365
  O      -1.197940     -0.477916     -0.072439
  P       0.082761      0.098137     -0.793139
  O       0.093872      1.517260     -1.203129
  F       0.228417     -0.845690     -2.071573
  O       1.218897     -0.422283      0.170493
  C       2.581965      0.095452      0.070994
  C       2.755904      1.178649      1.116855
  C       3.512466     -1.086419      0.237556
  H      -3.444833     -1.718746      0.564294
  H      -4.433847     -1.033189     -0.755230
  H      -3.021917     -2.054900     -1.141007
  H      -2.476396      0.331177     -1.506668
  H      -4.000523      1.384632      0.177048
  H      -2.309099      1.907666      0.394184
  H      -3.016247      0.687763      1.496042
  H       2.707736      0.529692     -0.934454
  H       2.037707      1.993411      0.945985
  H       3.772315      1.594948      1.063647
  H       2.596470      0.768636      2.125672
  H       4.556917     -0.754567      0.149744
  H       3.319254     -1.842138     -0.537081
  H       3.374921     -1.549580      1.226513
25
Coordinates from ORCA-job opt E -903.387687664597
  C      -3.409665     -1.294797     -0.451230
  C      -2.537300     -0.058137     -0.476474
  C      -2.991421      1.045769      0.457294
  O      -1.197266     -0.480750     -0.075914
  P       0.082112      0.105799     -0.790453
  O       0.090329      1.529635     -1.181737
  F       0.229326     -0.824244     -2.077268
  O       1.219024     -0.425194      0.166579
  C       2.582657      0.091681      0.068736
  C       2.756202      1.180456      1.108649
  C       3.511468     -1.090202      0.243904
  H      -3.440797     -1.723384      0.562101
  H      -4.434525     -1.034008     -0.752074
  H      -3.023898     -2.054658     -1.145600
  H      -2.478663      0.331317     -1.506408
  H      -4.000223      1.382523      0.177705
  H      -2.308833      1.905498      0.396121
  H      -3.016698      0.684228      1.496566
  H       2.712624      0.519909     -0.938956
  H       2.038272      1.994616      0.934144
  H       3.772827      1.595936      1.053103
  H       2.596966      0.775221      2.119536
  H       4.556364     -0.758984      0.158611
  H       3.321151     -1.849896     -0.527527
  H       3.369968     -1.548334      1.234738
25
Coordinates from ORCA-job opt E -903.387693899030
  C      -3.409783     -1.296740     -0.448020
  C      -2.537740     -0.060072     -0.477687
  C      -2.988560      1.045193      0.455918
  O      -1.196089     -0.483693     -0.081961
  P       0.081914      0.113205     -0.790340
  O       0.088097      1.541253     -1.164029
  F       0.229101     -0.801778     -2.087270
  O       1.219969     -0.429740      0.158693
  C       2.583724      0.088530      0.066377
  C       2.752736      1.179761      1.104352
  C       3.511865     -1.092760      0.248567
  H      -3.436475     -1.724480      0.565747
  H      -4.435951     -1.035883     -0.744343
  H      -3.027291     -2.056896     -1.143731
  H      -2.482244      0.328061     -1.508307
  H      -3.997562      1.382028      0.177148
  H      -2.305450      1.904139      0.392101
  H      -3.012854      0.684745      1.495552
  H       2.718161      0.513655     -0.942084
  H       2.034281      1.992560      0.926545
  H       3.769052      1.596135      1.049710
  H       2.592220      0.776260      2.115693
  H       4.556915     -0.760624      0.168788
  H       3.326751     -1.853760     -0.522709
  H       3.365212     -1.549101      1.239436
25
Coordinates from ORCA-job opt E -903.387697817353
  C      -3.409235     -1.299622     -0.441691
  C      -2.538356     -0.062422     -0.479546
  C      -2.986975      1.046309      0.451013
  O      -1.195094     -0.484743     -0.086660
  P       0.081731      0.121133     -0.789716
  O       0.086996      1.552929     -1.147889
  F       0.227203     -0.778758     -2.097438
  O       1.221229     -0.433601      0.150957
  C       2.584938      0.086370      0.064586
  C       2.749788      1.176967      1.103925
  C       3.512611     -1.094795      0.249987
  H      -3.432723     -1.722475      0.574118
  H      -4.436461     -1.040909     -0.736181
  H      -3.028124     -2.062429     -1.135138
  H      -2.485639      0.321090     -1.511992
  H      -3.996393      1.381849      0.172158
  H      -2.303942      1.904785      0.382278
  H      -3.010010      0.689920      1.491981
  H       2.722652      0.511194     -0.943509
  H       2.030985      1.989024      0.924820
  H       3.765854      1.594232      1.051420
  H       2.587746      0.772594      2.114586
  H       4.557775     -0.761787      0.175512
  H       3.331677     -1.854803     -0.523150
  H       3.361770     -1.552052      1.239714
25
Coordinates from ORCA-job opt E -903.387702747651
  C      -3.408723     -1.301634     -0.435575
  C      -2.538524     -0.064197     -0.481028
  C      -2.985944      1.048291      0.445731
  O      -1.194422     -0.484756     -0.088944
  P       0.081698      0.125516     -0.789660
  O       0.087405      1.559502     -1.139466
  F       0.224468     -0.765064     -2.104562
  O       1.222272     -0.436404      0.145566
  C       2.585538      0.085604      0.063768
  C       2.747167      1.173659      1.106357
  C       3.513777     -1.095232      0.248739
  H      -3.430739     -1.719092      0.582454
  H      -4.436465     -1.045148     -0.730150
  H      -3.027920     -2.067694     -1.125577
  H      -2.487583      0.314186     -1.515419
  H      -3.995779      1.382462      0.166716
  H      -2.303121      1.906504      0.372318
  H      -3.007614      0.696356      1.488185
  H       2.724754      0.512490     -0.943185
  H       2.027932      1.985407      0.927773
  H       3.762920      1.592014      1.056635
  H       2.583713      0.766654      2.115681
  H       4.558830     -0.761175      0.177574
  H       3.335307     -1.853353     -0.526798
  H       3.361055     -1.554896      1.237013
25
Coordinates from ORCA-job opt E -903.387702381610
  C      -3.408176     -1.302884     -0.431277
  C      -2.538342     -0.065333     -0.481800
  C      -2.985864      1.050265      0.441242
  O      -1.194076     -0.484082     -0.088814
  P       0.081647      0.127417     -0.789273
  O       0.088422      1.562492     -1.135498
  F       0.221680     -0.758791     -2.107854
  O       1.222852     -0.437955      0.143098
  C       2.585628      0.085571      0.063658
  C       2.745763      1.170973      1.109298
  C       3.514783     -1.094940      0.246374
  H      -3.429960     -1.716269      0.588425
  H      -4.436037     -1.048110     -0.726886
  H      -3.027011     -2.071580     -1.118177
  H      -2.488114      0.308846     -1.517765
  H      -3.995960      1.383200      0.161702
  H      -2.303340      1.908462      0.364635
  H      -3.006751      0.701968      1.484934
  H       2.725075      0.515091     -0.942118
  H       2.026192      1.982785      0.932228
  H       3.761287      1.590111      1.061655
  H       2.581580      0.761236      2.117401
  H       4.559649     -0.760103      0.176219
  H       3.336970     -1.851502     -0.530867
  H       3.362103     -1.556869      1.233604
25
Coordinates from ORCA-job opt E -903.387702573330
  C      -3.407898     -1.303354     -0.428636
  C      -2.537966     -0.065964     -0.482073
  C      -2.985414      1.051765      0.438454
  O      -1.193758     -0.483812     -0.088403
  P       0.081668      0.127789     -0.789302
  O       0.089578      1.563461     -1.133571
  F       0.219207     -0.756357     -2.109699
  O       1.223293     -0.439546      0.141255
  C       2.585528      0.085498      0.063566
  C       2.744094      1.169124      1.111296
  C       3.515844     -1.094353      0.244671
  H      -3.429380     -1.714603      0.591959
  H      -4.435828     -1.049211     -0.724541
  H      -3.026939     -2.073612     -1.113931
  H      -2.488195      0.305552     -1.519052
  H      -3.995635      1.384114      0.158698
  H      -2.302922      1.909835      0.359885
  H      -3.005752      0.705746      1.482942
  H       2.725168      0.517104     -0.941295
  H       2.024000      1.980735      0.935280
  H       3.759302      1.589205      1.065361
  H       2.579370      0.757343      2.118505
  H       4.560429     -0.758541      0.175031
  H       3.338717     -1.850126     -0.533521
  H       3.363487     -1.557792      1.231268
