29
Coordinates from ORCA-job opt E -976.896016614078
  C          -1.23063602775535      2.23278570498175     -1.11862677112053
  C          -1.38449476966584      1.47188534063859      0.19102848002057
  N          -1.30153584628705      0.02093333772435      0.01490472497824
  C          -2.56969970655691     -0.67818131350700     -0.20088621056243
  C          -3.26510063049120     -1.06791071230204      1.09631227591990
  C          -0.11076432688297     -0.58802968317422      0.01979539541213
  C          -0.06570481263430     -2.08521935308981     -0.16263483706026
  N           0.96641156397453      0.15103553244318      0.16561589922074
  P           2.49164663788423     -0.35508375121511      0.03009986715830
  O           2.97328320469858     -1.08917432949742     -1.16750126339262
  F           2.79846546158547     -1.24876123081391      1.34118689068946
  O           3.30965689676534      0.97594942365790      0.38108046438330
  C           4.73077626802325      0.98175755477714      0.25805345926808
  H          -1.99361978301440      1.92561077003098     -1.85024177664642
  H          -0.23707750818260      2.05798869116623     -1.55596816153403
  H          -1.34445391760468      3.31267259336314     -0.94320079962866
  H          -0.60788387908735      1.77372472549180      0.90532015009005
  H          -2.35992973578254      1.68646852997637      0.65167727925965
  H          -2.40002234428854     -1.55581671866238     -0.83684168050682
  H          -3.20901503469160     -0.00319538263990     -0.78949856526385
  H          -3.46897978567529     -0.18370033464636      1.71868677755304
  H          -4.22493716708549     -1.55783850828271      0.87732571994965
  H          -2.64944988555650     -1.76460016484701      1.68515593871314
  H          -0.90119239252116     -2.59307844871130      0.33234316696394
  H          -0.10139714417530     -2.32428862550720     -1.23685571740598
  H           0.86774103871476     -2.48609126634199      0.24766429380054
  H           5.06374025003478      2.01100554616070      0.43590001815636
  H           5.03640945827726      0.66244851115979     -0.74886032385751
  H           5.18776390798086      0.31670357166644      1.00645781544203
