29
Coordinates from ORCA-job opt E -976.884612050665
  C      -1.363670      2.243794     -1.133041
  C      -1.509077      1.524472      0.199493
  N      -1.356576      0.072391      0.029788
  C      -2.596463     -0.665263     -0.215283
  C      -3.208181     -1.134247      1.095967
  C      -0.086946     -0.503419      0.008456
  C       0.052902     -2.007886     -0.168254
  N       0.967024      0.246535      0.104149
  P       2.482855     -0.242347      0.044774
  O       2.917993     -1.112854     -1.098222
  F       2.715115     -1.011638      1.398147
  O       3.433594      1.049577      0.242400
  C       4.823221      0.803014      0.265576
  H      -2.114198      1.899499     -1.852015
  H      -0.376835      2.073754     -1.574963
  H      -1.492791      3.322022     -0.996806
  H      -0.775923      1.909720      0.917886
  H      -2.492655      1.754592      0.626720
  H      -2.425989     -1.516629     -0.882790
  H      -3.319900     -0.027016     -0.737466
  H      -3.457808     -0.284956      1.740484
  H      -4.127623     -1.696383      0.905272
  H      -2.522133     -1.780354      1.652161
  H      -0.791741     -2.544430      0.266690
  H       0.109465     -2.233718     -1.236762
  H       0.949990     -2.386152      0.325780
  H       5.340468      1.730665      0.523160
  H       5.162222      0.472404     -0.719782
  H       5.063659      0.044851      1.015971
29
Coordinates from ORCA-job opt E -976.893639831793
  C      -1.271960      2.220845     -1.144270
  C      -1.394863      1.484383      0.185461
  N      -1.313842      0.035049      0.026716
  C      -2.571439     -0.676187     -0.184211
  C      -3.221859     -1.108417      1.126847
  C      -0.111593     -0.563609     -0.007553
  C      -0.071873     -2.061596     -0.207992
  N       0.954946      0.178954      0.109424
  P       2.485490     -0.290858      0.043327
  O       2.970269     -1.101218     -1.115208
  F       2.760884     -1.070323      1.400581
  O       3.342194      1.051342      0.277466
  C       4.760577      0.926907      0.278679
  H      -2.068675      1.916982     -1.840461
  H      -0.304429      2.015032     -1.624346
  H      -1.351858      3.307150     -0.988804
  H      -0.613903      1.819994      0.882001
  H      -2.356732      1.728858      0.659083
  H      -2.412768     -1.542289     -0.841357
  H      -3.256222     -0.013100     -0.732478
  H      -3.447712     -0.237929      1.761127
  H      -4.165157     -1.639541      0.930387
  H      -2.564214     -1.779596      1.699148
  H      -0.957399     -2.556308      0.209612
  H      -0.020041     -2.275013     -1.285659
  H       0.805517     -2.494944      0.281663
  H       5.183510      1.899135      0.559113
  H       5.125443      0.652504     -0.721945
  H       5.087709      0.173794      1.011140
29
Coordinates from ORCA-job opt E -976.895325747521
  C      -1.226380      2.226190     -1.119931
  C      -1.367776      1.464739      0.193113
  N      -1.303835      0.017410      0.021964
  C      -2.576914     -0.666371     -0.196928
  C      -3.260505     -1.092789      1.098362
  C      -0.117222     -0.592583      0.005266
  C      -0.076092     -2.089783     -0.171086
  N       0.959096      0.147060      0.119177
  P       2.489937     -0.337572      0.049262
  O       2.990217     -1.146108     -1.096783
  F       2.784069     -1.103256      1.424878
  O       3.301797      1.026982      0.283524
  C       4.728487      0.978342      0.238317
  H      -2.019828      1.943679     -1.830439
  H      -0.252702      2.021556     -1.590177
  H      -1.299992      3.309965     -0.941928
  H      -0.584173      1.766600      0.899970
  H      -2.333919      1.697162      0.666841
  H      -2.428446     -1.524461     -0.863522
  H      -3.225840      0.028798     -0.751053
  H      -3.463109     -0.223019      1.742879
  H      -4.220275     -1.585075      0.879789
  H      -2.635098     -1.798833      1.667422
  H      -0.941593     -2.591775      0.273416
  H      -0.045250     -2.322352     -1.247487
  H       0.828215     -2.498275      0.296867
  H       5.095992      1.974678      0.514158
  H       5.078815      0.727410     -0.774644
  H       5.122326      0.241680      0.956265
29
Coordinates from ORCA-job opt E -976.895782845260
  C      -1.244090      2.235241     -1.123684
  C      -1.376939      1.470959      0.186585
  N      -1.298945      0.020313      0.015862
  C      -2.569734     -0.673506     -0.195021
  C      -3.262417     -1.073700      1.101108
  C      -0.111493     -0.592153      0.009418
  C      -0.071722     -2.088183     -0.169445
  N       0.973302      0.140266      0.133155
  P       2.500270     -0.365506      0.048813
  O       3.004836     -1.155758     -1.103279
  F       2.790247     -1.167595      1.414779
  O       3.303694      0.993543      0.326151
  C       4.729495      0.981437      0.240633
  H      -2.029220      1.941485     -1.837799
  H      -0.263922      2.048464     -1.586155
  H      -1.338038      3.316115     -0.942293
  H      -0.591775      1.772959      0.890824
  H      -2.345801      1.685809      0.662353
  H      -2.408144     -1.543871     -0.843684
  H      -3.209106      0.011955     -0.771366
  H      -3.465389     -0.192957      1.729218
  H      -4.222175     -1.563675      0.881729
  H      -2.645125     -1.774112      1.684439
  H      -0.935546     -2.594738      0.274088
  H      -0.041573     -2.321542     -1.245529
  H       0.837839     -2.492034      0.291317
  H       5.074239      1.979362      0.536948
  H       5.057230      0.766654     -0.787140
  H       5.160002      0.234771      0.925468
29
Coordinates from ORCA-job opt E -976.895891061411
  C      -1.242597      2.237712     -1.121107
  C      -1.379858      1.473543      0.187887
  N      -1.300507      0.022226      0.011642
  C      -2.571656     -0.673370     -0.201145
  C      -3.261654     -1.072551      1.095399
  C      -0.111867     -0.590366      0.011420
  C      -0.066984     -2.088822     -0.157534
  N       0.970576      0.144820      0.136752
  P       2.496961     -0.365788      0.043998
  O       3.000672     -1.152008     -1.109933
  F       2.783399     -1.188615      1.402391
  O       3.305180      0.985974      0.340528
  C       4.728890      0.981855      0.238598
  H      -2.019960      1.939569     -1.841144
  H      -0.257510      2.057834     -1.575208
  H      -1.345411      3.317442     -0.939142
  H      -0.594051      1.772892      0.893239
  H      -2.349360      1.686746      0.661757
  H      -2.407368     -1.544477     -0.847533
  H      -3.211302      0.010033     -0.779571
  H      -3.461486     -0.192738      1.725134
  H      -4.222787     -1.559438      0.876123
  H      -2.645035     -1.775357      1.675888
  H      -0.926481     -2.596153      0.293539
  H      -0.041857     -2.330971     -1.231480
  H       0.846167     -2.486057      0.300308
  H       5.071348      1.980952      0.532576
  H       5.044884      0.769356     -0.792901
  H       5.169652      0.235756      0.917009
29
Coordinates from ORCA-job opt E -976.895944867924
  C      -1.242345      2.234895     -1.122541
  C      -1.383010      1.474870      0.188604
  N      -1.301589      0.023272      0.012874
  C      -2.571422     -0.675120     -0.201177
  C      -3.261828     -1.070050      1.096455
  C      -0.111488     -0.587169      0.015378
  C      -0.063155     -2.085692     -0.157558
  N       0.967723      0.151266      0.146145
  P       2.493511     -0.360896      0.040799
  O       2.992258     -1.136279     -1.122396
  F       2.780405     -1.209781      1.385747
  O       3.308933      0.981504      0.357100
  C       4.730825      0.979570      0.242499
  H      -2.012316      1.928598     -1.846924
  H      -0.252863      2.060527     -1.568966
  H      -1.354415      3.314576     -0.945114
  H      -0.598030      1.775957      0.894096
  H      -2.353538      1.688760      0.659633
  H      -2.403482     -1.549117     -0.842556
  H      -3.211762      0.003275     -0.784582
  H      -3.462015     -0.188685      1.723777
  H      -4.223111     -1.557232      0.877925
  H      -2.645540     -1.771010      1.679251
  H      -0.919849     -2.595011      0.296700
  H      -0.043680     -2.326912     -1.231740
  H       0.851748     -2.483115      0.296063
  H       5.075010      1.980641      0.527345
  H       5.037417      0.761003     -0.790540
  H       5.177607      0.237355      0.921196
29
Coordinates from ORCA-job opt E -976.895971142611
  C      -1.241267      2.234128     -1.122577
  C      -1.385910      1.475530      0.189400
  N      -1.302191      0.024186      0.013909
  C      -2.570303     -0.676149     -0.201693
  C      -3.261149     -1.070994      1.096055
  C      -0.111003     -0.584081      0.017225
  C      -0.062285     -2.082276     -0.157356
  N       0.966259      0.156378      0.154033
  P       2.491197     -0.356869      0.039422
  O       2.984471     -1.122946     -1.132605
  F       2.780749     -1.223442      1.374159
  O       3.311855      0.978747      0.367155
  C       4.732814      0.976838      0.245097
  H      -2.005058      1.922032     -1.851115
  H      -0.248221      2.064087     -1.562805
  H      -1.360351      3.313684     -0.948320
  H      -0.603529      1.778370      0.896858
  H      -2.358229      1.689402      0.656720
  H      -2.399694     -1.551170     -0.840938
  H      -3.211813     -0.000652     -0.787207
  H      -3.462342     -0.189581      1.723117
  H      -4.222155     -1.559024      0.877715
  H      -2.644163     -1.770899      1.679515
  H      -0.916149     -2.590774      0.303498
  H      -0.051820     -2.323671     -1.231593
  H       0.854800     -2.480876      0.290678
  H       5.077913      1.982930      0.510537
  H       5.034351      0.740656     -0.785639
  H       5.183224      0.246436      0.934247
29
Coordinates from ORCA-job opt E -976.895993238211
  C      -1.235431      2.232689     -1.118790
  C      -1.387645      1.474152      0.192794
  N      -1.302154      0.023157      0.017981
  C      -2.568584     -0.677638     -0.202531
  C      -3.265674     -1.070859      1.092821
  C      -0.110272     -0.583498      0.023516
  C      -0.061749     -2.080706     -0.157164
  N       0.965454      0.158832      0.165795
  P       2.489644     -0.353578      0.039095
  O       2.974750     -1.108896     -1.143907
  F       2.787860     -1.233986      1.363793
  O       3.313261      0.977521      0.373517
  C       4.733587      0.976835      0.244193
  H      -1.992912      1.917138     -1.852570
  H      -0.238816      2.064945     -1.551924
  H      -1.359106      3.312171     -0.947054
  H      -0.610273      1.778314      0.905141
  H      -2.363066      1.688098      0.653656
  H      -2.394889     -1.554109     -0.839015
  H      -3.208187     -0.003950     -0.792230
  H      -3.469602     -0.188494      1.717840
  H      -4.225854     -1.559253      0.871540
  H      -2.650893     -1.769508      1.680246
  H      -0.911008     -2.589183      0.312437
  H      -0.064629     -2.319282     -1.232091
  H       0.859079     -2.481771      0.280769
  H       5.076941      1.991478      0.477505
  H       5.031156      0.711092     -0.780553
  H       5.189013      0.268287      0.952681
29
Coordinates from ORCA-job opt E -976.896005247409
  C      -1.234419      2.232923     -1.118325
  C      -1.387047      1.473048      0.192500
  N      -1.301600      0.022265      0.017433
  C      -2.568114     -0.678033     -0.202216
  C      -3.265951     -1.070208      1.093200
  C      -0.109679     -0.584208      0.021694
  C      -0.062364     -2.081203     -0.159124
  N       0.965885      0.157875      0.168567
  P       2.489914     -0.353245      0.036980
  O       2.971881     -1.099373     -1.153508
  F       2.792417     -1.240803      1.355507
  O       3.312857      0.976323      0.377438
  C       4.733471      0.977142      0.248719
  H      -1.992734      1.918480     -1.851812
  H      -0.238345      2.064192     -1.552360
  H      -1.356788      3.312409     -0.945988
  H      -0.610802      1.777294      0.906067
  H      -2.362912      1.686748      0.652658
  H      -2.395430     -1.555128     -0.838135
  H      -3.207529     -0.004179     -0.791978
  H      -3.469909     -0.187161      1.717334
  H      -4.226086     -1.558814      0.872413
  H      -2.651209     -1.768202      1.681545
  H      -0.906673     -2.588449      0.320944
  H      -0.078151     -2.320376     -1.233787
  H       0.862992     -2.482545      0.268972
  H       5.073456      1.998083      0.458408
  H       5.032793      0.688826     -0.769393
  H       5.190077      0.286319      0.973740
29
Coordinates from ORCA-job opt E -976.896013381367
  C      -1.230528      2.232640     -1.116296
  C      -1.386215      1.471777      0.193401
  N      -1.301282      0.021006      0.018339
  C      -2.568016     -0.678486     -0.202427
  C      -3.268499     -1.069167      1.091940
  C      -0.109802     -0.586283      0.024128
  C      -0.063355     -2.083088     -0.158497
  N       0.966334      0.155053      0.170641
  P       2.490619     -0.353764      0.034281
  O       2.969830     -1.093003     -1.161656
  F       2.798225     -1.244121      1.348623
  O       3.311500      0.976387      0.378108
  C       4.732393      0.979549      0.250143
  H      -1.989820      1.921517     -1.850196
  H      -0.234954      2.060964     -1.550368
  H      -1.349208      3.312283     -0.942757
  H      -0.611910      1.775316      0.909410
  H      -2.363104      1.685556      0.651428
  H      -2.395636     -1.556070     -0.837770
  H      -3.205795     -0.003913     -0.793190
  H      -3.473638     -0.185310      1.714527
  H      -4.228098     -1.558072      0.869761
  H      -2.655031     -1.766550      1.682357
  H      -0.903174     -2.590493      0.329429
  H      -0.089519     -2.321574     -1.233119
  H       0.866114     -2.484486      0.260453
  H       5.068848      2.005102      0.442327
  H       5.033459      0.674820     -0.762635
  H       5.190262      0.302409      0.987107
29
Coordinates from ORCA-job opt E -976.896013096443
  C      -1.230995      2.232813     -1.117643
  C      -1.385095      1.471658      0.191870
  N      -1.301211      0.020783      0.016359
  C      -2.568773     -0.678441     -0.201604
  C      -3.266958     -1.068139      1.094170
  C      -0.110115     -0.587411      0.021485
  C      -0.064381     -2.084492     -0.160370
  N       0.966600      0.152699      0.168064
  P       2.491385     -0.354634      0.031599
  O       2.971435     -1.089922     -1.166205
  F       2.799084     -1.246918      1.343725
  O       3.310459      0.975990      0.379783
  C       4.731617      0.980653      0.254892
  H      -1.993230      1.924489     -1.849610
  H      -0.237083      2.058817     -1.554529
  H      -1.346140      3.312597     -0.942710
  H      -0.609537      1.774327      0.906957
  H      -2.361122      1.685683      0.651591
  H      -2.398054     -1.556252     -0.837056
  H      -3.207150     -0.003533     -0.791338
  H      -3.471452     -0.183838      1.716265
  H      -4.226648     -1.557578      0.873627
  H      -2.652539     -1.765001      1.684151
  H      -0.901430     -2.591856      0.332421
  H      -0.096460     -2.323750     -1.234652
  H       0.867680     -2.485251      0.253287
  H       5.065930      2.008175      0.440068
  H       5.035413      0.668758     -0.754870
  H       5.188770      0.309573      0.997769
29
Coordinates from ORCA-job opt E -976.896015063438
  C      -1.230629      2.232836     -1.118188
  C      -1.384741      1.471799      0.191332
  N      -1.301409      0.020863      0.015434
  C      -2.569337     -0.678327     -0.201261
  C      -3.265920     -1.067963      1.095331
  C      -0.110537     -0.587870      0.020622
  C      -0.065236     -2.085068     -0.161390
  N       0.966506      0.151535      0.166631
  P       2.491607     -0.354971      0.030448
  O       2.972406     -1.089191     -1.167498
  F       2.799024     -1.248139      1.341731
  O       3.309942      0.975959      0.380548
  C       4.731092      0.981431      0.256848
  H      -1.993525      1.925597     -1.849882
  H      -0.237047      2.058035     -1.555483
  H      -1.344537      3.312695     -0.942784
  H      -0.608654      1.773892      0.906085
  H      -2.360461      1.686132      0.651520
  H      -2.399212     -1.556058     -0.836964
  H      -3.208215     -0.003356     -0.790375
  H      -3.470164     -0.183683      1.717496
  H      -4.225627     -1.557785      0.875627
  H      -2.650789     -1.764655      1.684733
  H      -0.901108     -2.592682      0.333181
  H      -0.099936     -2.324381     -1.235585
  H       0.867892     -2.485760      0.249829
  H       5.064460      2.010007      0.437785
  H       5.036026      0.665240     -0.751249
  H       5.188130      0.313867      1.002968
29
Coordinates from ORCA-job opt E -976.896016614078
  C      -1.230636      2.232786     -1.118627
  C      -1.384495      1.471885      0.191028
  N      -1.301536      0.020933      0.014905
  C      -2.569700     -0.678181     -0.200886
  C      -3.265101     -1.067911      1.096312
  C      -0.110764     -0.588030      0.019795
  C      -0.065705     -2.085219     -0.162635
  N       0.966412      0.151036      0.165616
  P       2.491647     -0.355084      0.030100
  O       2.973283     -1.089174     -1.167501
  F       2.798465     -1.248761      1.341187
  O       3.309657      0.975949      0.381080
  C       4.730776      0.981758      0.258053
  H      -1.993620      1.925611     -1.850242
  H      -0.237078      2.057989     -1.555968
  H      -1.344454      3.312673     -0.943201
  H      -0.607884      1.773725      0.905320
  H      -2.359930      1.686469      0.651677
  H      -2.400022     -1.555817     -0.836842
  H      -3.209015     -0.003195     -0.789499
  H      -3.468980     -0.183700      1.718687
  H      -4.224937     -1.557839      0.877326
  H      -2.649450     -1.764600      1.685156
  H      -0.901192     -2.593078      0.332343
  H      -0.101397     -2.324289     -1.236856
  H       0.867741     -2.486091      0.247664
  H       5.063740      2.011006      0.435900
  H       5.036409      0.662449     -0.748860
  H       5.187764      0.316704      1.006458
