32
A-234 P3S_N6C7Z q=0
C      3.67877132     0.36283100     2.03571420
C      3.47466463     0.52713890     0.54397182
O      2.38985764    -0.29024075     0.14382215
P      1.84915590    -0.07054417    -1.36517878
O      2.96761970     0.00222383    -2.36401224
F      1.18578812     1.35338676    -1.25762983
N      0.66838591    -1.09785033    -1.63923769
C     -0.53420935    -1.08270990    -1.18539471
C     -1.44235360    -2.18619730    -1.69112253
N     -1.11715601    -0.17427750    -0.32107787
C     -0.57641325    -0.02351071     1.03425859
C     -1.69453284     0.04319641     2.06281942
C     -1.75988803     1.01486736    -0.89924367
C     -3.24989918     0.77780579    -1.08521581
H      2.77353015     0.64826871     2.58195445
H      3.88345010    -0.68379664     2.28423559
H      4.51179864     0.97850284     2.38617022
H      4.37597861     0.22080324     0.00412123
H      3.25636277     1.57377157     0.30838592
H     -0.87892977    -3.11836640    -1.79264630
H     -2.27338699    -2.34867478    -0.99912073
H     -1.83840469    -1.90143679    -2.67002241
H      0.05242774     0.87135723     1.10055014
H      0.05312843    -0.88644928     1.28187020
H     -1.27660740     0.07509280     3.07392577
H     -2.31181629     0.93671718     1.92785911
H     -2.34801420    -0.83243800     1.98924052
H     -1.61081091     1.89106277    -0.25735519
H     -1.30693989     1.25902542    -1.86775207
H     -3.73383060     0.52050313    -0.13786989
H     -3.43794433    -0.03888999    -1.78885107
H     -3.72978231     1.67882761    -1.47989505
