32
A-234 P3S_N6C7E q=0
C      4.59694248     0.88839138     1.56798786
C      4.06427566     0.21760436     0.31883971
O      2.65793792     0.37755584     0.28218541
P      1.91300776    -0.16009326    -1.04811636
O      2.30017152    -1.56604945    -1.40363548
F      2.47985823     0.81959030    -2.14158373
N      0.36594722     0.20985546    -0.93896345
C     -0.52521695    -0.42410622    -0.24027827
C     -0.11786886    -1.64404121     0.57300553
N     -1.85504647    -0.00414357    -0.26521338
C     -2.95068993    -0.66338050     0.44561019
C     -3.43602911    -1.88250566    -0.32198766
C     -2.24723194     1.15264042    -1.08403027
C     -2.06221694     2.44371104    -0.30215940
H      5.68353399     0.78431857     1.63398819
H      4.14474162     0.45013669     2.46385940
H      4.34295325     1.95356209     1.57179066
H      4.50995166     0.67237092    -0.57156946
H      4.30803938    -0.84927413     0.33315451
H     -0.83512058    -1.89481779     1.35303089
H      0.84051869    -1.47062625     1.06877979
H     -0.02210005    -2.50010414    -0.10098722
H     -3.79227522     0.02924197     0.57299971
H     -2.65481828    -0.93586036     1.46318642
H     -4.27197439    -2.35339934     0.20456869
H     -3.77826315    -1.60443376    -1.32439079
H     -2.64415299    -2.62889770    -0.43590517
H     -1.66945145     1.18932089    -2.01497478
H     -3.29598258     1.06390401    -1.39326652
H     -1.01652554     2.58776786    -0.01189177
H     -2.36802192     3.30167624    -0.90883063
H     -2.66489302     2.44008534     0.61207087
