42
Coordinates from ORCA-job opt E -1378.792298350518
  C           3.27330198002418     -1.75643777589700      0.90467526716228
  C           3.58975448366242     -0.49489899351993      0.13539354135508
  O           2.70218670937932      0.54125633205564      0.57646711825953
  P           2.39954935435706      1.90333784081228     -0.24022264066449
  C           3.97373354393716      2.66079203491120     -0.65169834631333
  O           1.48142671962346      2.76033355850358      0.56713182226290
  S           1.64796984607853      1.27659469594221     -2.11168043584290
  C           0.40917698667820      0.05380466170090     -1.55102018015316
  C          -0.80451655298585      0.66256913621010     -0.84229875054631
  N          -1.52848130998596     -0.36355575360936     -0.12367293046836
  C          -2.98578842298793     -0.36375786380508     -0.25246137804082
  C          -3.66291003317898      0.99630616948934     -0.02347127641329
  C          -3.39864829578084     -0.95376231462588     -1.60273200510347
  C          -0.94558760302121     -0.69541897640900      1.17823176068781
  C          -1.36841617268770      0.22032926664702      2.33427206211737
  C          -1.15127867941247     -2.16954476121915      1.52533826215922
  H           3.96153611488699     -2.55906697482763      0.60296097838521
  H           3.38558127933464     -1.59106070698481      1.98610104330950
  H           2.24322817044541     -2.08887641831247      0.70617925021712
  H           4.62811089779775     -0.17137120220171      0.31388927952761
  H           3.46345697241426     -0.64832037670021     -0.94998102148502
  H           3.78273194878581      3.55216346569117     -1.26574188190033
  H           4.62793869185497      1.96846121209943     -1.19834654170974
  H           4.45146462710214      2.96749633022470      0.29028269063756
  H           0.10579376124311     -0.48289166834483     -2.46184128462844
  H           0.91540413423233     -0.67389282723938     -0.90188630143984
  H          -1.45437334679429      1.12555058742461     -1.59928653385971
  H          -0.47118033966799      1.48420179856078     -0.18041425244703
  H          -3.35765075529015     -1.04805704162729      0.52742217435331
  H          -4.75789608210400      0.88109937078860     -0.01860278480250
  H          -3.41237834747574      1.71202954312260     -0.82253245637518
  H          -3.36450174269009      1.44198881915904      0.93544669963069
  H          -4.49433644212342     -1.01891477773097     -1.69153771237888
  H          -3.03506725701260     -0.32790387246039     -2.43474520553949
  H          -2.97619406178833     -1.96191682128479     -1.72751279875574
  H           0.14106194042531     -0.55139306760020      1.05197906932736
  H          -0.78769523898065     -0.01630083608650      3.23933709648279
  H          -1.18720645372546      1.27898641209418      2.09057669136545
  H          -2.43513592769032      0.09752914284868      2.58095551333642
  H          -0.79954950429904     -2.80981786021962      0.70224641502589
  H          -0.59263669340806     -2.43469710371256      2.43614426413552
  H          -2.21197889917197     -2.40297241386730      1.71121181912938
