42
Coordinates from ORCA-job opt E -1378.780189437664
  C       3.663949     -0.785946      1.669815
  C       3.837458      0.223540      0.553629
  O       2.746074      1.125117      0.589732
  P       2.319947      1.951763     -0.734222
  C       3.820936      2.786936     -1.236427
  O       1.223262      2.933284     -0.432207
  S       1.718957      0.646382     -2.248591
  C       0.572724     -0.502950     -1.424062
  C      -0.632792      0.212204     -0.791136
  N      -1.658839     -0.722341     -0.281410
  C      -3.010103     -0.125332     -0.180870
  C      -3.079970      1.335276      0.289748
  C      -3.701387     -0.260818     -1.545213
  C      -1.225052     -1.500843      0.898846
  C      -1.261068     -0.755722      2.236248
  C      -2.016155     -2.813802      0.999518
  H       4.493536     -1.498236      1.684604
  H       3.612608     -0.282792      2.641047
  H       2.725960     -1.337866      1.547634
  H       4.764809      0.786091      0.697097
  H       3.884569     -0.290987     -0.410060
  H       3.627123      3.420191     -2.106949
  H       4.604882      2.073436     -1.504281
  H       4.191491      3.421542     -0.426562
  H       0.230661     -1.222217     -2.175835
  H       1.152118     -1.052114     -0.678031
  H      -1.072573      0.838226     -1.576835
  H      -0.305999      0.880056      0.011843
  H      -3.623143     -0.709683      0.514077
  H      -4.124913      1.631179      0.437786
  H      -2.650950      2.029149     -0.440404
  H      -2.564718      1.482688      1.242492
  H      -4.741545      0.078098     -1.483495
  H      -3.204766      0.331738     -2.320705
  H      -3.716353     -1.306283     -1.873605
  H      -0.188174     -1.819208      0.747869
  H      -0.829207     -1.379059      3.027569
  H      -0.673965      0.166986      2.197438
  H      -2.282292     -0.507661      2.541982
  H      -1.992061     -3.358334      0.048935
  H      -1.572438     -3.466075      1.760346
  H      -3.062599     -2.655612      1.277200
42
Coordinates from ORCA-job opt E -1378.787446760256
  C       3.479239     -0.960724      1.564508
  C       3.727259      0.091499      0.504322
  O       2.698588      1.080531      0.588891
  P       2.309841      2.013944     -0.675616
  C       3.838328      2.791035     -1.197635
  O       1.247372      3.002616     -0.299239
  S       1.698108      0.768656     -2.240745
  C       0.581644     -0.392057     -1.389118
  C      -0.635433      0.289376     -0.764018
  N      -1.599632     -0.679824     -0.258111
  C      -2.978699     -0.171848     -0.209482
  C      -3.138630      1.281730      0.259095
  C      -3.646620     -0.368887     -1.576740
  C      -1.144424     -1.394012      0.941039
  C      -1.234428     -0.603440      2.252254
  C      -1.849804     -2.749060      1.065506
  H       4.262550     -1.730659      1.534218
  H       3.469641     -0.506682      2.566696
  H       2.502762     -1.444203      1.409216
  H       4.703482      0.577110      0.665391
  H       3.730110     -0.372531     -0.496663
  H       3.644077      3.463422     -2.044929
  H       4.593180      2.052422     -1.504697
  H       4.236098      3.383134     -0.361959
  H       0.255294     -1.112196     -2.152932
  H       1.177147     -0.940103     -0.645531
  H      -1.112096      0.885002     -1.556318
  H      -0.316856      0.996116      0.023552
  H      -3.543008     -0.797370      0.498682
  H      -4.205996      1.513332      0.395077
  H      -2.740394      1.999988     -0.473626
  H      -2.637864      1.462986      1.221056
  H      -4.711114     -0.086646     -1.537200
  H      -3.167201      0.244609     -2.356581
  H      -3.589136     -1.422470     -1.888099
  H      -0.079886     -1.633778      0.790270
  H      -0.763126     -1.170705      3.069644
  H      -0.710144      0.362692      2.180419
  H      -2.278544     -0.412061      2.545033
  H      -1.772486     -3.313759      0.124184
  H      -1.381931     -3.352502      1.858747
  H      -2.917266     -2.644683      1.315998
42
Coordinates from ORCA-job opt E -1378.789787568171
  C       3.295617     -1.126858      1.452909
  C       3.616178     -0.045229      0.445919
  O       2.652126      1.012273      0.581431
  P       2.318374      2.067254     -0.600368
  C       3.878210      2.778860     -1.130479
  O       1.308444      3.061232     -0.125112
  S       1.687031      0.914393     -2.238905
  C       0.576715     -0.262927     -1.393198
  C      -0.643628      0.385078     -0.749407
  N      -1.551422     -0.607118     -0.214490
  C      -2.964963     -0.207090     -0.228294
  C      -3.251714      1.244284      0.186648
  C      -3.586753     -0.507535     -1.594450
  C      -1.062867     -1.280125      0.995262
  C      -1.168882     -0.475378      2.298014
  C      -1.684666     -2.668955      1.143607
  H       4.032799     -1.939959      1.378106
  H       3.321271     -0.724556      2.477614
  H       2.292674     -1.545962      1.271043
  H       4.624190      0.369184      0.619988
  H       3.584777     -0.447488     -0.583226
  H       3.692083      3.498301     -1.941647
  H       4.589417      2.016042     -1.480329
  H       4.303197      3.312153     -0.266247
  H       0.255886     -0.958557     -2.183401
  H       1.177808     -0.835912     -0.672871
  H      -1.164121      0.951776     -1.536760
  H      -0.319047      1.131891      0.003989
  H      -3.474448     -0.855326      0.503431
  H      -4.338565      1.391036      0.293680
  H      -2.896575      1.964870     -0.568072
  H      -2.784879      1.502826      1.147961
  H      -4.668485     -0.293489     -1.594393
  H      -3.125034      0.106137     -2.387690
  H      -3.444341     -1.567418     -1.856303
  H       0.013211     -1.448435      0.821177
  H      -0.645370     -1.002036      3.112348
  H      -0.706046      0.521103      2.199620
  H      -2.217795     -0.341347      2.610690
  H      -1.574648     -3.238590      0.207601
  H      -1.186686     -3.229934      1.950797
  H      -2.759072     -2.618467      1.388360
42
Coordinates from ORCA-job opt E -1378.790412708392
  C       3.356781     -1.129300      1.481944
  C       3.642640     -0.057692      0.455577
  O       2.647052      0.972272      0.577581
  P       2.307322      2.050028     -0.580807
  C       3.860030      2.776442     -1.114785
  O       1.298355      3.024547     -0.071267
  S       1.691803      0.915735     -2.247899
  C       0.555225     -0.267833     -1.440875
  C      -0.653763      0.378244     -0.771547
  N      -1.558139     -0.610894     -0.225731
  C      -2.974490     -0.225550     -0.242222
  C      -3.271421      1.209565      0.217221
  C      -3.585971     -0.492881     -1.618812
  C      -1.070425     -1.274943      0.986867
  C      -1.143799     -0.438170      2.270217
  C      -1.717949     -2.646532      1.170604
  H       4.116961     -1.921085      1.413546
  H       3.380726     -0.710357      2.499023
  H       2.367029     -1.581200      1.314551
  H       4.635866      0.392089      0.620235
  H       3.623843     -0.470454     -0.568458
  H       3.659044      3.497476     -1.920226
  H       4.574212      2.020088     -1.468181
  H       4.278543      3.310209     -0.247808
  H       0.223646     -0.926832     -2.257436
  H       1.143412     -0.880756     -0.745498
  H      -1.184249      0.956066     -1.543818
  H      -0.309533      1.121372     -0.023692
  H      -3.475829     -0.899147      0.471783
  H      -4.358951      1.348681      0.321677
  H      -2.913580      1.954448     -0.511589
  H      -2.809340      1.437730      1.188821
  H      -4.665534     -0.272608     -1.624850
  H      -3.113104      0.136782     -2.391885
  H      -3.443200     -1.546345     -1.903229
  H      -0.001041     -1.463095      0.800179
  H      -0.634068     -0.961936      3.094312
  H      -0.648574      0.538366      2.143854
  H      -2.186507     -0.259835      2.581466
  H      -1.623856     -3.238940      0.247750
  H      -1.229757     -3.196232      1.990328
  H      -2.789405     -2.567527      1.417639
42
Coordinates from ORCA-job opt E -1378.790776756959
  C       3.315186     -1.198177      1.457448
  C       3.594371     -0.137712      0.419110
  O       2.636916      0.918653      0.582067
  P       2.323170      2.057530     -0.521452
  C       3.888956      2.767720     -1.041204
  O       1.349385      3.031926      0.049637
  S       1.672642      1.012434     -2.240384
  C       0.523337     -0.201709     -1.497800
  C      -0.681293      0.419000     -0.794547
  N      -1.550639     -0.587890     -0.223507
  C      -2.980637     -0.255106     -0.247931
  C      -3.325626      1.178278      0.182962
  C      -3.576320     -0.567146     -1.621575
  C      -1.031134     -1.212678      0.998350
  C      -1.119733     -0.350856      2.263638
  C      -1.627978     -2.601695      1.219182
  H       4.044857     -2.014403      1.357087
  H       3.397864     -0.780874      2.471253
  H       2.305619     -1.616912      1.333237
  H       4.605381      0.282104      0.544166
  H       3.522440     -0.544236     -0.603907
  H       3.694955      3.516763     -1.821486
  H       4.581233      2.005349     -1.420822
  H       4.323270      3.266597     -0.162052
  H       0.190508     -0.817099     -2.346957
  H       1.105975     -0.853379     -0.833873
  H      -1.241561      0.993825     -1.547439
  H      -0.330792      1.164303     -0.054080
  H      -3.459055     -0.932124      0.476552
  H      -4.416874      1.288737      0.276452
  H      -2.982888      1.919165     -0.556477
  H      -2.876657      1.435866      1.152439
  H      -4.659437     -0.371101     -1.639562
  H      -3.112788      0.056133     -2.404000
  H      -3.406076     -1.622052     -1.882455
  H       0.042236     -1.367778      0.805082
  H      -0.587295     -0.839661      3.093996
  H      -0.655186      0.635401      2.108964
  H      -2.163843     -0.196902      2.579964
  H      -1.524133     -3.211338      0.309264
  H      -1.111611     -3.113242      2.045080
  H      -2.696747     -2.555712      1.480138
42
Coordinates from ORCA-job opt E -1378.790966053468
  C       3.277397     -1.260475      1.446897
  C       3.553304     -0.193873      0.414478
  O       2.592515      0.854994      0.584735
  P       2.306580      2.032918     -0.482031
  C       3.883034      2.748008     -0.962347
  O       1.337636      2.997517      0.113246
  S       1.667775      1.048386     -2.243678
  C       0.490107     -0.171539     -1.561494
  C      -0.700813      0.451950     -0.836882
  N      -1.542367     -0.556938     -0.229902
  C      -2.982176     -0.265094     -0.244071
  C      -3.366191      1.165834      0.163705
  C      -3.575315     -0.616834     -1.609210
  C      -0.981623     -1.149401      0.990439
  C      -1.067077     -0.274507      2.247191
  C      -1.536666     -2.550518      1.241868
  H       4.008366     -2.074961      1.342097
  H       3.359659     -0.848031      2.462556
  H       2.268393     -1.679849      1.320354
  H       4.563288      0.227903      0.541555
  H       3.481947     -0.593778     -0.611028
  H       3.701289      3.511204     -1.731645
  H       4.575252      1.987423     -1.345463
  H       4.308301      3.230458     -0.070204
  H       0.152129     -0.749219     -2.434587
  H       1.054162     -0.858554     -0.915817
  H      -1.282770      1.019618     -1.577980
  H      -0.336528      1.202531     -0.109229
  H      -3.436968     -0.943733      0.493432
  H      -4.459503      1.250888      0.258049
  H      -3.044220      1.902708     -0.588417
  H      -2.921121      1.449884      1.126950
  H      -4.662381     -0.445036     -1.626757
  H      -3.128538      0.001911     -2.404438
  H      -3.381595     -1.671894     -1.852000
  H       0.092077     -1.280176      0.777874
  H      -0.509191     -0.741362      3.073313
  H      -0.626285      0.718623      2.071294
  H      -2.107854     -0.140036      2.581088
  H      -1.441156     -3.169383      0.337370
  H      -0.984911     -3.037464      2.059553
  H      -2.597961     -2.530102      1.533690
42
Coordinates from ORCA-job opt E -1378.791055436447
  C       3.201668     -1.328320      1.400125
  C       3.493553     -0.248313      0.385853
  O       2.554294      0.814315      0.579882
  P       2.307808      2.031742     -0.450050
  C       3.903118      2.724653     -0.898327
  O       1.358757      3.003456      0.167284
  S       1.657657      1.115333     -2.243097
  C       0.476420     -0.120036     -1.598200
  C      -0.711991      0.490669     -0.856977
  N      -1.521748     -0.530658     -0.226467
  C      -2.969745     -0.290106     -0.240709
  C      -3.404119      1.130768      0.151236
  C      -3.549245     -0.678883     -1.602214
  C      -0.937104     -1.081567      1.000859
  C      -1.052241     -0.191726      2.244576
  C      -1.443276     -2.497159      1.274557
  H       3.914990     -2.156023      1.278687
  H       3.294807     -0.935177      2.422689
  H       2.183182     -1.723574      1.269067
  H       4.513552      0.149045      0.514014
  H       3.407443     -0.629832     -0.645899
  H       3.743871      3.506464     -1.654039
  H       4.581592      1.956663     -1.292106
  H       4.333010      3.180301      0.005463
  H       0.140096     -0.676141     -2.485581
  H       1.035941     -0.823254     -0.965636
  H      -1.316922      1.044395     -1.589893
  H      -0.349243      1.249159     -0.137325
  H      -3.400857     -0.976830      0.504144
  H      -4.499984      1.180726      0.241490
  H      -3.104596      1.870613     -0.607183
  H      -2.971696      1.438870      1.113072
  H      -4.642010     -0.546088     -1.622434
  H      -3.123919     -0.053928     -2.404543
  H      -3.318086     -1.729092     -1.833465
  H       0.140234     -1.177950      0.790063
  H      -0.482207     -0.629778      3.078340
  H      -0.640299      0.811243      2.054678
  H      -2.097345     -0.084783      2.575236
  H      -1.331222     -3.125828      0.378706
  H      -0.870787     -2.954194      2.095809
  H      -2.503350     -2.509176      1.572874
42
Coordinates from ORCA-job opt E -1378.791178940164
  C       3.233122     -1.352002      1.386439
  C       3.495516     -0.264582      0.370884
  O       2.548646      0.789108      0.580940
  P       2.302857      2.017369     -0.436264
  C       3.897776      2.717661     -0.871511
  O       1.350732      2.985861      0.184233
  S       1.656268      1.121372     -2.237961
  C       0.467330     -0.112611     -1.604378
  C      -0.718398      0.502559     -0.860159
  N      -1.524198     -0.518552     -0.223305
  C      -2.972306     -0.290271     -0.242950
  C      -3.419238      1.129236      0.138438
  C      -3.545065     -0.693558     -1.603722
  C      -0.938012     -1.058645      1.006504
  C      -1.061987     -0.166630      2.247866
  C      -1.430469     -2.478922      1.283448
  H       3.951774     -2.172984      1.251365
  H       3.337927     -0.960361      2.408899
  H       2.215819     -1.755532      1.270602
  H       4.514763      0.140505      0.483141
  H       3.396021     -0.647381     -0.659900
  H       3.739985      3.500645     -1.626833
  H       4.580999      1.953519     -1.266122
  H       4.324313      3.172276      0.034556
  H       0.129055     -0.660481     -2.495987
  H       1.018166     -0.824262     -0.973730
  H      -1.327485      1.053283     -1.592005
  H      -0.354718      1.261232     -0.141176
  H      -3.400414     -0.976364      0.504924
  H      -4.516254      1.172169      0.221207
  H      -3.120031      1.867357     -0.622333
  H      -2.995691      1.446107      1.101767
  H      -4.639857     -0.574385     -1.626977
  H      -3.125749     -0.067928     -2.409310
  H      -3.301565     -1.742495     -1.829233
  H       0.140237     -1.144365      0.799675
  H      -0.495201     -0.602803      3.085260
  H      -0.649322      0.836729      2.058901
  H      -2.109139     -0.062066      2.573752
  H      -1.313294     -3.108173      0.388399
  H      -0.852248     -2.930842      2.104353
  H      -2.490667     -2.500792      1.582858
42
Coordinates from ORCA-job opt E -1378.791343531093
  C       3.233364     -1.426526      1.339069
  C       3.474378     -0.321332      0.336499
  O       2.526281      0.726158      0.577731
  P       2.306362      1.993876     -0.397062
  C       3.912601      2.682246     -0.804937
  O       1.368880      2.962199      0.248738
  S       1.648692      1.172666     -2.226737
  C       0.442049     -0.062698     -1.626489
  C      -0.742646      0.546570     -0.873927
  N      -1.520235     -0.483634     -0.217806
  C      -2.973270     -0.308271     -0.247064
  C      -3.471346      1.097922      0.117660
  C      -3.528435     -0.748515     -1.604066
  C      -0.917335     -0.980739      1.019547
  C      -1.083462     -0.078483      2.248641
  C      -1.341799     -2.419663      1.314119
  H       3.952817     -2.242597      1.181501
  H       3.349737     -1.049432      2.366121
  H       2.215254     -1.831142      1.230935
  H       4.495361      0.082813      0.437412
  H       3.358031     -0.691423     -0.697603
  H       3.768328      3.481683     -1.546115
  H       4.588852      1.919561     -1.214996
  H       4.342817      3.112561      0.111397
  H       0.103460     -0.586565     -2.532212
  H       0.975431     -0.796371     -1.006518
  H      -1.371231      1.080842     -1.601467
  H      -0.382583      1.314764     -0.163546
  H      -3.378239     -1.001338      0.507886
  H      -4.570239      1.104881      0.189805
  H      -3.189951      1.839271     -0.647365
  H      -3.068114      1.438303      1.082227
  H      -4.627540     -0.674654     -1.630492
  H      -3.133691     -0.114497     -2.416176
  H      -3.242984     -1.789308     -1.818880
  H       0.164931     -1.014238      0.818285
  H      -0.509464     -0.486598      3.095607
  H      -0.700330      0.935530      2.051647
  H      -2.136489     -0.006406      2.565431
  H      -1.194605     -3.052558      0.425801
  H      -0.742979     -2.836723      2.139226
  H      -2.400661     -2.488133      1.612726
42
Coordinates from ORCA-job opt E -1378.791512429535
  C       3.213464     -1.490433      1.290262
  C       3.455752     -0.372481      0.302057
  O       2.518467      0.679747      0.570645
  P       2.324538      1.979310     -0.369609
  C       3.943237      2.644944     -0.763804
  O       1.408489      2.951174      0.302318
  S       1.642429      1.224476     -2.216868
  C       0.422004     -0.008912     -1.636100
  C      -0.763391      0.591022     -0.876530
  N      -1.514516     -0.449956     -0.207045
  C      -2.971860     -0.326737     -0.248645
  C      -3.522277      1.063416      0.101385
  C      -3.505286     -0.798030     -1.603514
  C      -0.901393     -0.908557      1.039040
  C      -1.129503     -0.008082      2.259773
  C      -1.248827     -2.366436      1.338854
  H       3.926218     -2.308837      1.115839
  H       3.338549     -1.129177      2.321924
  H       2.191655     -1.886050      1.182699
  H       4.481450      0.020070      0.398072
  H       3.324309     -0.726141     -0.735770
  H       3.811657      3.460889     -1.489270
  H       4.607149      1.881739     -1.192401
  H       4.382489      3.049154      0.160157
  H       0.081779     -0.514843     -2.551518
  H       0.943398     -0.759175     -1.026042
  H      -1.409514      1.109762     -1.599893
  H      -0.407436      1.368806     -0.174314
  H      -3.354906     -1.027739      0.510915
  H      -4.621421      1.031780      0.163981
  H      -3.260728      1.808518     -0.667220
  H      -3.140225      1.426356      1.066385
  H      -4.606229     -0.768261     -1.633797
  H      -3.133892     -0.154348     -2.419192
  H      -3.178900     -1.828454     -1.809811
  H       0.183752     -0.879354      0.849794
  H      -0.545077     -0.381361      3.115674
  H      -0.795839      1.022846      2.060598
  H      -2.188319      0.010929      2.564755
  H      -1.051431     -2.994878      0.457007
  H      -0.641795     -2.745166      2.176120
  H      -2.308019     -2.491530      1.617643
42
Coordinates from ORCA-job opt E -1378.791695847694
  C       3.176600     -1.545868      1.237021
  C       3.441878     -0.416949      0.268179
  O       2.524351      0.647178      0.561528
  P       2.348017      1.968189     -0.355668
  C       3.975641      2.616123     -0.743116
  O       1.446747      2.938521      0.337063
  S       1.643605      1.257020     -2.211411
  C       0.409270      0.033889     -1.635276
  C      -0.775036      0.628497     -0.870426
  N      -1.505907     -0.419667     -0.190380
  C      -2.966610     -0.340019     -0.247076
  C      -3.561979      1.035743      0.086985
  C      -3.477467     -0.835396     -1.601115
  C      -0.888988     -0.844693      1.066627
  C      -1.196566      0.040689      2.281100
  C      -1.154439     -2.319849      1.360659
  H       3.877368     -2.371784      1.049839
  H       3.305160     -1.204746      2.274660
  H       2.149404     -1.923904      1.120238
  H       4.473973     -0.044440      0.368285
  H       3.299806     -0.746561     -0.775454
  H       3.851394      3.447483     -1.451866
  H       4.631032      1.856800     -1.189975
  H       4.420695      2.996981      0.187841
  H       0.064541     -0.461473     -2.555104
  H       0.922031     -0.727297     -1.031660
  H      -1.434774      1.135458     -1.589735
  H      -0.418716      1.414590     -0.177175
  H      -3.333310     -1.046266      0.515800
  H      -4.659821      0.969690      0.142650
  H      -3.318697      1.781254     -0.687016
  H      -3.198248      1.420639      1.050182
  H      -4.578110     -0.842739     -1.635664
  H      -3.125120     -0.183510     -2.418320
  H      -3.116226     -1.855419     -1.799774
  H       0.196148     -0.745684      0.896618
  H      -0.597565     -0.286872      3.145352
  H      -0.936171      1.091823      2.080999
  H      -2.257368     -0.014467      2.573647
  H      -0.884687     -2.934743      0.488459
  H      -0.557637     -2.658259      2.221386
  H      -2.214220     -2.509962      1.595651
42
Coordinates from ORCA-job opt E -1378.791864653074
  C       3.184703     -1.581176      1.182946
  C       3.464455     -0.433978      0.240787
  O       2.560238      0.633969      0.560509
  P       2.372400      1.963270     -0.344270
  C       3.997243      2.612961     -0.741876
  O       1.478552      2.923872      0.369202
  S       1.643847      1.265820     -2.197532
  C       0.405747      0.049272     -1.616389
  C      -0.781540      0.644631     -0.856219
  N      -1.508936     -0.403058     -0.171758
  C      -2.970755     -0.345070     -0.246045
  C      -3.591773      1.025060      0.066223
  C      -3.457295     -0.858576     -1.601845
  C      -0.898613     -0.813094      1.095074
  C      -1.251602      0.062783      2.304263
  C      -1.136090     -2.293698      1.382791
  H       3.877877     -2.409155      0.976692
  H       3.316821     -1.266249      2.228081
  H       2.154660     -1.947084      1.056719
  H       4.499924     -0.073885      0.348652
  H       3.317451     -0.734543     -0.810391
  H       3.865488      3.456108     -1.434930
  H       4.648075      1.861433     -1.207412
  H       4.450285      2.979155      0.190925
  H       0.061960     -0.450192     -2.534483
  H       0.917834     -0.709655     -1.009046
  H      -1.442011      1.146242     -1.578488
  H      -0.427052      1.435563     -0.167826
  H      -3.336208     -1.049948      0.518642
  H      -4.688643      0.941191      0.112499
  H      -3.353358      1.764865     -0.714397
  H      -3.243382      1.427436      1.027414
  H      -4.556926     -0.884079     -1.647477
  H      -3.107146     -0.206986     -2.419702
  H      -3.076931     -1.873831     -1.788209
  H       0.186651     -0.687063      0.941671
  H      -0.650954     -0.239385      3.176360
  H      -1.029973      1.122106      2.102595
  H      -2.312919     -0.028685      2.584668
  H      -0.822366     -2.902479      0.521048
  H      -0.561324     -2.615304      2.264283
  H      -2.198412     -2.508565      1.580806
42
Coordinates from ORCA-job opt E -1378.792081721310
  C       3.201618     -1.635862      1.098003
  C       3.498615     -0.453094      0.206999
  O       2.605184      0.611024      0.564181
  P       2.387387      1.950504     -0.318424
  C       4.001057      2.623994     -0.723465
  O       1.491642      2.884621      0.424506
  S       1.644183      1.266523     -2.174330
  C       0.404003      0.053314     -1.596954
  C      -0.786741      0.654991     -0.846088
  N      -1.513097     -0.386005     -0.151080
  C      -2.974363     -0.350808     -0.244995
  C      -3.619250      1.015222      0.037016
  C      -3.431013     -0.889756     -1.601788
  C      -0.910585     -0.773809      1.127813
  C      -1.299479      0.104772      2.323751
  C      -1.131655     -2.255974      1.422688
  H       3.888392     -2.460921      0.860165
  H       3.332824     -1.367622      2.156057
  H       2.169725     -1.987808      0.951235
  H       4.536374     -0.106335      0.335714
  H       3.355286     -0.705587     -0.857179
  H       3.852663      3.483159     -1.392915
  H       4.652473      1.888161     -1.212315
  H       4.458842      2.973073      0.213430
  H       0.066709     -0.453909     -2.513054
  H       0.916204     -0.698971     -0.981096
  H      -1.444215      1.151183     -1.574768
  H      -0.432978      1.452115     -0.164836
  H      -3.341601     -1.049969      0.523557
  H      -4.715067      0.916360      0.072225
  H      -3.381694      1.745125     -0.752830
  H      -3.286707      1.436714      0.995369
  H      -4.529379     -0.930243     -1.663749
  H      -3.076347     -0.244849     -2.422533
  H      -3.033299     -1.901856     -1.767672
  H       0.174425     -0.633912      0.987160
  H      -0.701859     -0.169487      3.206802
  H      -1.107479      1.167384      2.110287
  H      -2.361750     -0.010098      2.591071
  H      -0.788734     -2.869221      0.575548
  H      -0.575277     -2.559112      2.322432
  H      -2.195038     -2.483030      1.598619
42
Coordinates from ORCA-job opt E -1378.792213969027
  C       3.218814     -1.697552      0.998805
  C       3.531914     -0.473394      0.171101
  O       2.645158      0.581232      0.569163
  P       2.397847      1.934514     -0.282891
  C       3.999968      2.632685     -0.691618
  O       1.501857      2.841419      0.492023
  S       1.641701      1.278240     -2.145321
  C       0.403738      0.060657     -1.576824
  C      -0.794822      0.665548     -0.839474
  N      -1.518168     -0.369253     -0.132750
  C      -2.977626     -0.359898     -0.245900
  C      -3.647369      1.000223      0.005333
  C      -3.405602     -0.928112     -1.601031
  C      -0.922927     -0.728803      1.157666
  C      -1.339469      0.160745      2.335614
  C      -1.126889     -2.210408      1.471259
  H       3.900902     -2.515522      0.725279
  H       3.344649     -1.484555      2.070188
  H       2.185757     -2.034297      0.826745
  H       4.571150     -0.141376      0.327035
  H       3.398453     -0.672900     -0.905809
  H       3.837873      3.508511     -1.335854
  H       4.649422      1.911404     -1.204689
  H       4.464718      2.961394      0.249305
  H       0.078555     -0.456884     -2.491318
  H       0.915804     -0.682107     -0.949395
  H      -1.449291      1.151468     -1.577779
  H      -0.447434      1.471129     -0.165195
  H      -3.345602     -1.052706      0.527916
  H      -4.742075      0.885857      0.028415
  H      -3.409885      1.721082     -0.792846
  H      -3.332308      1.439564      0.961667
  H      -4.502505     -0.985924     -1.678682
  H      -3.047474     -0.291435     -2.426787
  H      -2.989768     -1.936447     -1.744410
  H       0.161537     -0.578400      1.025752
  H      -0.747667     -0.087437      3.230182
  H      -1.166804      1.223785      2.106313
  H      -2.403108      0.031030      2.591069
  H      -0.764725     -2.832871      0.639179
  H      -0.579006     -2.491724      2.383719
  H      -2.189293     -2.448481      1.639401
42
Coordinates from ORCA-job opt E -1378.792268406996
  C       3.241721     -1.719461      0.937543
  C       3.572054     -0.468236      0.157994
  O       2.683664      0.577517      0.575007
  P       2.399746      1.927448     -0.269668
  C       3.985010      2.656796     -0.689580
  O       1.492372      2.813132      0.516781
  S       1.643845      1.264552     -2.129572
  C       0.415350      0.042778     -1.550086
  C      -0.790934      0.653167     -0.830224
  N      -1.524209     -0.373031     -0.121998
  C      -2.981665     -0.358534     -0.249054
  C      -3.645975      1.006501     -0.011431
  C      -3.400342     -0.935042     -1.604024
  C      -0.941775     -0.725964      1.175528
  C      -1.358570      0.178781      2.341723
  C      -1.160904     -2.203032      1.502586
  H       3.926846     -2.529559      0.648866
  H       3.348660     -1.544164      2.017969
  H       2.211353     -2.048250      0.735207
  H       4.609524     -0.146073      0.344452
  H       3.458273     -0.632758     -0.927261
  H       3.805420      3.538757     -1.320540
  H       4.637016      1.948018     -1.216876
  H       4.455411      2.979313      0.250883
  H       0.100875     -0.496103     -2.455854
  H       0.932045     -0.681555     -0.905382
  H      -1.435621      1.134124     -1.580513
  H      -0.448936      1.463529     -0.158619
  H      -3.360731     -1.044082      0.525869
  H      -4.741626      0.898997      0.003281
  H      -3.397207      1.721880     -0.811250
  H      -3.335600      1.447270      0.945988
  H      -4.496845     -0.986988     -1.692677
  H      -3.029373     -0.307284     -2.431209
  H      -2.988851     -1.946865     -1.735364
  H       0.145651     -0.590192      1.049105
  H      -0.775514     -0.064685      3.243282
  H      -1.178522      1.239291      2.104212
  H      -2.425252      0.057799      2.589609
  H      -0.802997     -2.837592      0.677953
  H      -0.617663     -2.481051      2.419022
  H      -2.225723     -2.429151      1.672879
42
Coordinates from ORCA-job opt E -1378.792289992244
  C       3.243433     -1.750018      0.904095
  C       3.572129     -0.489175      0.138957
  O       2.686826      0.552083      0.573441
  P       2.401477      1.913900     -0.251162
  C       3.985127      2.650905     -0.663422
  O       1.493986      2.788679      0.548489
  S       1.643734      1.280554     -2.119270
  C       0.409142      0.057520     -1.552376
  C      -0.798213      0.666386     -0.832949
  N      -1.522987     -0.360991     -0.117782
  C      -2.979416     -0.365879     -0.250702
  C      -3.661895      0.991504     -0.021109
  C      -3.386421     -0.954311     -1.603780
  C      -0.940649     -0.695488      1.183755
  C      -1.374170      0.211688      2.342235
  C      -1.137169     -2.172916      1.522052
  H       3.928503     -2.556430      0.605253
  H       3.350481     -1.587476      1.986517
  H       2.212783     -2.076435      0.698672
  H       4.610813     -0.171560      0.325908
  H       3.453755     -0.640909     -0.947672
  H       3.804357      3.539831     -1.284150
  H       4.636216      1.948895     -1.201000
  H       4.458598      2.961920      0.279390
  H       0.097336     -0.476096     -2.462162
  H       0.919437     -0.672168     -0.908672
  H      -1.448056      1.139968     -1.583415
  H      -0.458298      1.480936     -0.165471
  H      -3.352094     -1.053009      0.526336
  H      -4.756344      0.871359     -0.013308
  H      -3.416406      1.707859     -0.821166
  H      -3.363001      1.438390      0.937150
  H      -4.481720     -1.021680     -1.696108
  H      -3.021199     -0.325568     -2.432925
  H      -2.961069     -1.961176     -1.729208
  H       0.145066     -0.542899      1.060400
  H      -0.792504     -0.020055      3.247891
  H      -1.204869      1.272922      2.100295
  H      -2.440258      0.078104      2.586309
  H      -0.768753     -2.807424      0.701870
  H      -0.589333     -2.436442      2.440003
  H      -2.198375     -2.415298      1.693348
42
Coordinates from ORCA-job opt E -1378.792293234473
  C       3.251455     -1.748190      0.912580
  C       3.576338     -0.490148      0.141010
  O       2.690613      0.550911      0.574495
  P       2.400516      1.911520     -0.249682
  C       3.980832      2.655061     -0.663326
  O       1.489507      2.782376      0.550864
  S       1.645575      1.278906     -2.118474
  C       0.409175      0.055667     -1.553376
  C      -0.800036      0.664161     -0.837120
  N      -1.524613     -0.363388     -0.121609
  C      -2.981328     -0.365994     -0.252543
  C      -3.661740      0.991316     -0.016625
  C      -3.391395     -0.949730     -1.606399
  C      -0.941662     -0.698806      1.179109
  C      -1.366589      0.212650      2.337661
  C      -1.144455     -2.174415      1.521097
  H       3.938371     -2.554236      0.617037
  H       3.358435     -1.580041      1.994132
  H       2.221281     -2.077925      0.709523
  H       4.615057     -0.170502      0.324253
  H       3.455254     -0.646810     -0.944546
  H       3.796718      3.543186     -1.284158
  H       4.632783      1.954876     -1.202459
  H       4.456348      2.966618      0.278253
  H       0.100034     -0.478954     -2.463493
  H       0.917595     -0.673666     -0.907799
  H      -1.449986      1.135296     -1.589034
  H      -0.462005      1.480197     -0.170716
  H      -3.353044     -1.055280      0.523128
  H      -4.756438      0.873255     -0.010267
  H      -3.414490      1.711377     -0.812822
  H      -3.362806      1.432904      0.944069
  H      -4.486847     -1.015402     -1.697657
  H      -3.026518     -0.319181     -2.434359
  H      -2.967686     -1.956833     -1.735516
  H       0.144702     -0.552250      1.053127
  H      -0.786114     -0.024850      3.242645
  H      -1.187652      1.272369      2.096612
  H      -2.433393      0.087254      2.582978
  H      -0.786486     -2.811623      0.698320
  H      -0.589902     -2.440431      2.434195
  H      -2.205405     -2.411246      1.701450
42
Coordinates from ORCA-job opt E -1378.792297042113
  C       3.255349     -1.749207      0.913840
  C       3.578949     -0.491620      0.140897
  O       2.693360      0.549223      0.575071
  P       2.400249      1.909818     -0.247672
  C       3.978900      2.656904     -0.661372
  O       1.487146      2.777158      0.554485
  S       1.646518      1.279180     -2.117181
  C       0.408398      0.056690     -1.553448
  C      -0.801543      0.665082     -0.838256
  N      -1.525658     -0.362651     -0.122219
  C      -2.982579     -0.364809     -0.252545
  C      -3.662348      0.993394     -0.019899
  C      -3.393403     -0.951483     -1.604786
  C      -0.941980     -0.698929      1.177960
  C      -1.363710      0.212736      2.337662
  C      -1.146359     -2.174239      1.520276
  H       3.942939     -2.554864      0.618785
  H       3.362467     -1.579763      1.995149
  H       2.225396     -2.079927      0.711587
  H       4.617767     -0.171346      0.322528
  H       3.456366     -0.648938     -0.944327
  H       3.792985      3.545340     -1.281192
  H       4.631108      1.958331     -1.202405
  H       4.455887      2.967460      0.279758
  H       0.100260     -0.477646     -2.464085
  H       0.915733     -0.673167     -0.907618
  H      -1.452204      1.134482     -1.590641
  H      -0.464149      1.482280     -0.172942
  H      -3.353967     -1.052081      0.525039
  H      -4.757137      0.876174     -0.015148
  H      -3.413357      1.711865     -0.817013
  H      -3.364744      1.436840      0.940284
  H      -4.488884     -1.017310     -1.695405
  H      -3.029070     -0.322981     -2.434508
  H      -2.969899     -1.958934     -1.731828
  H       0.144490     -0.553933      1.050825
  H      -0.782103     -0.027036      3.241339
  H      -1.182927      1.272333      2.097730
  H      -2.430132      0.088470      2.585002
  H      -0.793949     -2.811447      0.695074
  H      -0.587383     -2.442077      2.430083
  H      -2.206781     -2.409371      1.705670
42
Coordinates from ORCA-job opt E -1378.792297560282
  C       3.260742     -1.753306      0.908502
  C       3.583289     -0.494026      0.137883
  O       2.698712      0.546131      0.575704
  P       2.401250      1.907022     -0.244778
  C       3.978008      2.658111     -0.658368
  O       1.486187      2.770098      0.559743
  S       1.647830      1.278113     -2.114719
  C       0.408728      0.056383     -1.551685
  C      -0.802665      0.665283     -0.839109
  N      -1.526560     -0.361852     -0.121873
  C      -2.983537     -0.365076     -0.252765
  C      -3.664078      0.992813     -0.020902
  C      -3.393442     -0.952465     -1.604993
  C      -0.943739     -0.695697      1.179327
  C      -1.368574      0.216799      2.337277
  C      -1.146437     -2.170880      1.523476
  H       3.948028     -2.558223      0.610744
  H       3.369420     -1.586106      1.989993
  H       2.230594     -2.083639      0.707068
  H       4.622419     -0.174104      0.318294
  H       3.458696     -0.648760     -0.947449
  H       3.789946      3.547448     -1.276219
  H       4.630628      1.961773     -1.201811
  H       4.456098      2.967207      0.282642
  H       0.102330     -0.479053     -2.462253
  H       0.915263     -0.672690     -0.904318
  H      -1.453279      1.132020     -1.593141
  H      -0.466640      1.484316     -0.175372
  H      -3.354670     -1.052226      0.524965
  H      -4.758820      0.875240     -0.017852
  H      -3.414099      1.711462     -0.817521
  H      -3.368002      1.436313      0.939744
  H      -4.488830     -1.019598     -1.695700
  H      -3.029881     -0.323814     -2.434903
  H      -2.968800     -1.959460     -1.731752
  H       0.142672     -0.549145      1.053466
  H      -0.787673     -0.021074      3.241911
  H      -1.189216      1.276382      2.096406
  H      -2.435040      0.090974      2.583499
  H      -0.794068     -2.808528      0.698594
  H      -0.586349     -2.437137      2.433044
  H      -2.206440     -2.407027      1.709757
42
Coordinates from ORCA-job opt E -1378.792265757544
  C       3.317592     -1.798801      0.843504
  C       3.628515     -0.518875      0.102848
  O       2.751038      0.509833      0.580006
  P       2.411722      1.877354     -0.211227
  C       3.969298      2.668028     -0.623035
  O       1.481784      2.697057      0.621068
  S       1.656718      1.273498     -2.086721
  C       0.409330      0.056725     -1.532689
  C      -0.815275      0.669676     -0.844504
  N      -1.536779     -0.351002     -0.115180
  C      -2.993430     -0.368318     -0.254946
  C      -3.685521      0.986025     -0.039370
  C      -3.389619     -0.970542     -1.604848
  C      -0.962713     -0.659250      1.196270
  C      -1.415451      0.262665      2.336277
  C      -1.149930     -2.132317      1.559730
  H       4.003370     -2.593373      0.516034
  H       3.440021     -1.659365      1.927423
  H       2.286187     -2.126323      0.646831
  H       4.669692     -0.201460      0.275453
  H       3.487152     -0.643659     -0.984103
  H       3.759721      3.568701     -1.216932
  H       4.624538      1.995682     -1.193168
  H       4.458679      2.959309      0.317588
  H       0.119524     -0.488341     -2.442906
  H       0.907948     -0.665240     -0.871158
  H      -1.464734      1.112078     -1.613770
  H      -0.491957      1.505269     -0.195446
  H      -3.362766     -1.051553      0.526642
  H      -4.779394      0.862076     -0.053150
  H      -3.427092      1.702491     -0.835118
  H      -3.406537      1.436066      0.923398
  H      -4.483677     -1.052234     -1.699341
  H      -3.031483     -0.344275     -2.438675
  H      -2.952129     -1.973108     -1.722149
  H       0.122933     -0.498700      1.081655
  H      -0.842525      0.043367      3.250667
  H      -1.247591      1.321355      2.084677
  H      -2.482766      0.124508      2.571123
  H      -0.793380     -2.775859      0.741228
  H      -0.584104     -2.381350      2.470506
  H      -2.206910     -2.377817      1.750064
42
Coordinates from ORCA-job opt E -1378.792299015127
  C       3.278751     -1.769631      0.885472
  C       3.597483     -0.502482      0.126389
  O       2.713720      0.532829      0.577009
  P       2.403651      1.897001     -0.232974
  C       3.974731      2.660767     -0.644639
  O       1.483806      2.745920      0.580967
  S       1.650020      1.277541     -2.105509
  C       0.408314      0.057060     -1.546452
  C      -0.807169      0.667158     -0.841392
  N      -1.529719     -0.357767     -0.119663
  C      -2.986593     -0.366004     -0.252933
  C      -3.671232      0.990942     -0.028277
  C      -3.392144     -0.960238     -1.603570
  C      -0.948877     -0.682743      1.184759
  C      -1.382615      0.232976      2.336812
  C      -1.146123     -2.157304      1.535361
  H       3.966221     -2.570593      0.577664
  H       3.390936     -1.612779      1.968162
  H       2.248451     -2.099315      0.684188
  H       4.636837     -0.182872      0.305993
  H       3.469060     -0.646336     -0.959985
  H       3.780237      3.554482     -1.254117
  H       4.628574      1.972390     -1.196750
  H       4.455515      2.963418      0.297027
  H       0.107258     -0.480941     -2.457260
  H       0.912292     -0.670008     -0.894804
  H      -1.457616      1.126040     -1.600308
  H      -0.475229      1.491611     -0.182395
  H      -3.356959     -1.050938      0.527018
  H      -4.765691      0.870904     -0.029985
  H      -3.419118      1.707560     -0.826011
  H      -3.380461      1.438338      0.932201
  H      -4.487153     -1.032330     -1.695190
  H      -3.030499     -0.333400     -2.435633
  H      -2.963203     -1.965940     -1.725904
  H       0.137238     -0.531498      1.062022
  H      -0.803525      0.002301      3.244471
  H      -1.208165      1.292314      2.091482
  H      -2.449207      0.102693      2.579970
  H      -0.791073     -2.797116      0.713315
  H      -0.585359     -2.417324      2.446309
  H      -2.205367     -2.396690      1.721717
42
Coordinates from ORCA-job opt E -1378.792301284055
  C       3.276539     -1.763517      0.894535
  C       3.594001     -0.499118      0.130378
  O       2.708517      0.536631      0.576582
  P       2.401925      1.899895     -0.236450
  C       3.974382      2.660698     -0.648384
  O       1.483196      2.752723      0.574628
  S       1.648871      1.277144     -2.108426
  C       0.408339      0.055750     -1.548658
  C      -0.805938      0.665362     -0.841401
  N      -1.529239     -0.360053     -0.121151
  C      -2.986224     -0.365035     -0.252821
  C      -3.667908      0.993091     -0.026082
  C      -3.394544     -0.957241     -1.603509
  C      -0.947491     -0.688506      1.182056
  C      -1.375950      0.227133      2.336105
  C      -1.148893     -2.162887      1.530776
  H       3.964410     -2.565260      0.589655
  H       3.388904     -1.602430      1.976597
  H       2.246325     -2.094638      0.694770
  H       4.632924     -0.177685      0.309320
  H       3.466468     -0.647651     -0.955513
  H       3.781403      3.553207     -1.260138
  H       4.628366      1.970366     -1.197855
  H       4.453780      2.965461      0.293350
  H       0.105827     -0.481323     -2.459544
  H       0.913256     -0.671895     -0.898426
  H      -1.456121      1.126734     -1.599076
  H      -0.472944      1.488183     -0.180853
  H      -3.357315     -1.049960      0.526860
  H      -4.762596      0.875002     -0.025389
  H      -3.416287      1.709617     -0.824077
  H      -3.374266      1.439453      0.934003
  H      -4.489829     -1.026311     -1.694278
  H      -3.031775     -0.330654     -2.435308
  H      -2.968361     -1.963989     -1.726946
  H       0.138890     -0.540780      1.057678
  H      -0.796656     -0.006890      3.242772
  H      -1.197588      1.286097      2.091816
  H      -2.442840      0.100980      2.580309
  H      -0.795233     -2.802866      0.708267
  H      -0.589411     -2.425485      2.441790
  H      -2.208917     -2.399354      1.716595
42
Coordinates from ORCA-job opt E -1378.792310864077
  C       3.269751     -1.750177      0.913355
  C       3.585944     -0.491657      0.139040
  O       2.697695      0.545775      0.575804
  P       2.398944      1.906633     -0.244607
  C       3.974826      2.659913     -0.657300
  O       1.482830      2.768615      0.559680
  S       1.646744      1.276143     -2.114827
  C       0.408979      0.053053     -1.552475
  C      -0.803000      0.661669     -0.840926
  N      -1.527972     -0.364918     -0.124082
  C      -2.985200     -0.362992     -0.252439
  C      -3.660593      0.997578     -0.021125
  C      -3.399328     -0.950514     -1.603400
  C      -0.944641     -0.700517      1.176656
  C      -1.364170      0.213917      2.334920
  C      -1.152886     -2.174918      1.520855
  H       3.957916     -2.554011      0.614695
  H       3.382177     -1.580594      1.994125
  H       2.239586     -2.083411      0.716313
  H       4.624163     -0.167261      0.316826
  H       3.460339     -0.649597     -0.945793
  H       3.785684      3.549681     -1.274265
  H       4.628717      1.964919     -1.200910
  H       4.451544      2.969204      0.284388
  H       0.103390     -0.482685     -2.463134
  H       0.916148     -0.675357     -0.904904
  H      -1.452550      1.128037     -1.596143
  H      -0.467963      1.481060     -0.177104
  H      -3.357855     -1.048007      0.526501
  H      -4.755715      0.883558     -0.015230
  H      -3.410132      1.714013     -0.819593
  H      -3.360779      1.441681      0.938086
  H      -4.495148     -1.013564     -1.692183
  H      -3.034591     -0.324101     -2.434521
  H      -2.978678     -1.959260     -1.729571
  H       0.142158     -0.558529      1.049448
  H      -0.783561     -0.025741      3.239246
  H      -1.180433      1.272578      2.092923
  H      -2.431135      0.093555      2.581873
  H      -0.801293     -2.814397      0.697090
  H      -0.595735     -2.442560      2.431859
  H      -2.214177     -2.406813      1.705403
42
Coordinates from ORCA-job opt E -1378.792291531213
  C       3.276293     -1.759591      0.900376
  C       3.592307     -0.496872      0.132845
  O       2.705599      0.538949      0.576463
  P       2.400863      1.901533     -0.238572
  C       3.974115      2.660654     -0.650529
  O       1.482542      2.756609      0.570592
  S       1.648297      1.276535     -2.110098
  C       0.408628      0.054575     -1.549613
  C      -0.805296      0.663900     -0.841628
  N      -1.529192     -0.361789     -0.122353
  C      -2.986320     -0.364084     -0.252684
  C      -3.665482      0.995141     -0.024842
  C      -3.396965     -0.955085     -1.603197
  C      -0.946953     -0.692315      1.180128
  C      -1.372600      0.223131      2.335366
  C      -1.150507     -2.166669      1.527632
  H       3.964410     -2.561691      0.596998
  H       3.389299     -1.595806      1.981968
  H       2.246122     -2.091798      0.702112
  H       4.630923     -0.173916      0.310852
  H       3.464879     -0.648440     -0.952644
  H       3.782025      3.552501     -1.263536
  H       4.628250      1.969317     -1.198538
  H       4.452688      2.966571      0.291268
  H       0.105551     -0.482353     -2.460398
  H       0.914179     -0.673086     -0.899893
  H      -1.455158      1.126295     -1.598966
  H      -0.472049      1.485990     -0.180289
  H      -3.358008     -1.048642      0.527048
  H      -4.760345      0.878705     -0.022236
  H      -3.414149      1.711247     -0.823306
  H      -3.369537      1.441083      0.934723
  H      -4.492464     -1.021999     -1.693019
  H      -3.033645     -0.328896     -2.435067
  H      -2.972831     -1.962616     -1.727309
  H       0.139563     -0.546365      1.054865
  H      -0.792699     -0.012410      3.241238
  H      -1.192700      1.281975      2.091571
  H      -2.439442      0.098716      2.580676
  H      -0.797508     -2.806600      0.704810
  H      -0.591753     -2.430723      2.438678
  H      -2.210928     -2.401679      1.713063
42
Coordinates from ORCA-job opt E -1378.792301766383
  C       3.274952     -1.757259      0.903500
  C       3.590904     -0.495482      0.134402
  O       2.703672      0.540584      0.576370
  P       2.400197      1.902746     -0.239890
  C       3.973990      2.660722     -0.651892
  O       1.482189      2.759243      0.568117
  S       1.647957      1.276377     -2.111177
  C       0.408885      0.053982     -1.550303
  C      -0.804727      0.663068     -0.841684
  N      -1.528879     -0.362847     -0.122993
  C      -2.986075     -0.363768     -0.252612
  C      -3.663949      0.995975     -0.023970
  C      -3.397916     -0.953950     -1.603119
  C      -0.946372     -0.694549      1.179095
  C      -1.370219      0.220928      2.334970
  C      -1.151470     -2.168804      1.526027
  H       3.963102     -2.559730      0.601175
  H       3.387853     -1.592153      1.984904
  H       2.244794     -2.089744      0.705537
  H       4.629379     -0.172039      0.312368
  H       3.463934     -0.648548     -0.950940
  H       3.782515      3.552150     -1.265705
  H       4.628140      1.968658     -1.198951
  H       4.452079      2.967345      0.289931
  H       0.105406     -0.482804     -2.461039
  H       0.914904     -0.673710     -0.900993
  H      -1.454477      1.126196     -1.598678
  H      -0.471222      1.484646     -0.179822
  H      -3.358043     -1.048263      0.527055
  H      -4.758900      0.880371     -0.020250
  H      -3.412874      1.711974     -0.822616
  H      -3.366692      1.441556      0.935354
  H      -4.493523     -1.019686     -1.692501
  H      -3.034247     -0.327869     -2.434926
  H      -2.974869     -1.961879     -1.727710
  H       0.140251     -0.549909      1.053298
  H      -0.790005     -0.015556      3.240396
  H      -1.189264      1.279662      2.091424
  H      -2.437058      0.097696      2.580922
  H      -0.799098     -2.808846      0.703030
  H      -0.593077     -2.433755      2.437042
  H      -2.212146     -2.402731      1.711410
42
Coordinates from ORCA-job opt E -1378.792302161338
  C       3.271430     -1.753594      0.908632
  C       3.587991     -0.493305      0.137348
  O       2.699900      0.543313      0.576265
  P       2.399016      1.904822     -0.242091
  C       3.973989      2.660498     -0.653836
  O       1.481528      2.763874      0.563797
  S       1.647522      1.276422     -2.113114
  C       0.409263      0.053370     -1.551806
  C      -0.803878      0.661959     -0.842101
  N      -1.528158     -0.364454     -0.124210
  C      -2.985507     -0.363411     -0.252394
  C      -3.661500      0.997041     -0.022312
  C      -3.399416     -0.952322     -1.602822
  C      -0.944936     -0.697859      1.177166
  C      -1.366004      0.217508      2.334151
  C      -1.151972     -2.172014      1.523238
  H       3.959779     -2.556701      0.608460
  H       3.383340     -1.586450      1.989826
  H       2.241422     -2.086412      0.710337
  H       4.626201     -0.169303      0.315859
  H       3.462319     -0.648631     -0.947837
  H       3.783882      3.551232     -1.269091
  H       4.628077      1.967045     -1.199187
  H       4.451246      2.968203      0.288072
  H       0.105162     -0.483061     -2.462548
  H       0.915969     -0.674494     -0.903239
  H      -1.453643      1.126070     -1.598489
  H      -0.470020      1.482804     -0.179496
  H      -3.357628     -1.047876      0.527237
  H      -4.756561      0.882567     -0.016533
  H      -3.411176      1.712917     -0.821307
  H      -3.361977      1.442113      0.936543
  H      -4.495198     -1.016382     -1.691280
  H      -3.035491     -0.326342     -2.434604
  H      -2.977952     -1.960809     -1.728286
  H       0.141790     -0.554963      1.050363
  H      -0.784938     -0.020298      3.238688
  H      -1.183838      1.276147      2.091025
  H      -2.432704      0.095704      2.581456
  H      -0.800818     -2.812086      0.699749
  H      -0.593620     -2.438296      2.433898
  H      -2.212891     -2.404547      1.709028
42
Coordinates from ORCA-job opt E -1378.792297757246
  C       3.273601     -1.756291      0.904897
  C       3.589879     -0.494867      0.135356
  O       2.702332      0.541322      0.576395
  P       2.399701      1.903356     -0.240389
  C       3.973887      2.660690     -0.652081
  O       1.481729      2.760501      0.566976
  S       1.647890      1.276526     -2.111724
  C       0.409081      0.053829     -1.550900
  C      -0.804514      0.662665     -0.842075
  N      -1.528575     -0.363446     -0.123538
  C      -2.985854     -0.363714     -0.252503
  C      -3.663064      0.996295     -0.023456
  C      -3.398538     -0.953612     -1.602876
  C      -0.945758     -0.695473      1.178352
  C      -1.368695      0.220110      2.334481
  C      -1.151410     -2.169654      1.525240
  H       3.961837     -2.558932      0.603221
  H       3.386032     -1.590721      1.986278
  H       2.243516     -2.088822      0.706616
  H       4.628250     -0.171277      0.313661
  H       3.463442     -0.648472     -0.949976
  H       3.782875      3.551996     -1.266218
  H       4.628039      1.968274     -1.198687
  H       4.451683      2.967495      0.289835
  H       0.105570     -0.482861     -2.461682
  H       0.915310     -0.673888     -0.901788
  H      -1.454329      1.125846     -1.598981
  H      -0.471058      1.484169     -0.180093
  H      -3.357775     -1.048109      0.527272
  H      -4.758049      0.881057     -0.018822
  H      -3.412396      1.712137     -0.822370
  H      -3.364864      1.441853      0.935585
  H      -4.494214     -1.018810     -1.691808
  H      -3.034897     -0.327653     -2.434788
  H      -2.976024     -1.961736     -1.727707
  H       0.140890     -0.551378      1.052178
  H      -0.788074     -0.016626      3.239583
  H      -1.187469      1.278797      2.090921
  H      -2.435444      0.097271      2.581025
  H      -0.799538     -2.809805      0.702114
  H      -0.592881     -2.434896      2.436088
  H      -2.212127     -2.403147      1.710941
42
Coordinates from ORCA-job opt E -1378.792298350518
  C       3.273302     -1.756438      0.904675
  C       3.589754     -0.494899      0.135394
  O       2.702187      0.541256      0.576467
  P       2.399549      1.903338     -0.240223
  C       3.973734      2.660792     -0.651698
  O       1.481427      2.760334      0.567132
  S       1.647970      1.276595     -2.111680
  C       0.409177      0.053805     -1.551020
  C      -0.804517      0.662569     -0.842299
  N      -1.528481     -0.363556     -0.123673
  C      -2.985788     -0.363758     -0.252461
  C      -3.662910      0.996306     -0.023471
  C      -3.398648     -0.953762     -1.602732
  C      -0.945588     -0.695419      1.178232
  C      -1.368416      0.220329      2.334272
  C      -1.151279     -2.169545      1.525338
  H       3.961536     -2.559067      0.602961
  H       3.385581     -1.591061      1.986101
  H       2.243228     -2.088876      0.706179
  H       4.628111     -0.171371      0.313889
  H       3.463457     -0.648320     -0.949981
  H       3.782732      3.552163     -1.265742
  H       4.627939      1.968461     -1.198347
  H       4.451465      2.967496      0.290283
  H       0.105794     -0.482892     -2.461841
  H       0.915404     -0.673893     -0.901886
  H      -1.454373      1.125551     -1.599287
  H      -0.471180      1.484202     -0.180414
  H      -3.357651     -1.048057      0.527422
  H      -4.757896      0.881099     -0.018603
  H      -3.412378      1.712030     -0.822532
  H      -3.364502      1.441989      0.935447
  H      -4.494336     -1.018915     -1.691538
  H      -3.035067     -0.327904     -2.434745
  H      -2.976194     -1.961917     -1.727513
  H       0.141062     -0.551393      1.051979
  H      -0.787695     -0.016301      3.239337
  H      -1.187206      1.278986      2.090577
  H      -2.435136      0.097529      2.580956
  H      -0.799550     -2.809818      0.702246
  H      -0.592637     -2.434697      2.436144
  H      -2.211979     -2.402972      1.711212
