32
Coordinates from ORCA-job opt E -1558.850359771861
  C          -1.54108780509605     -3.67694865406237      0.43532696888900
  C          -1.48677616915030     -2.56199033713090      1.44955055959364
  O          -1.74941017665201     -1.32090696447328      0.75980963452808
  P          -1.55050400169123      0.08922570304384      1.47166698148517
  S          -2.34383616636620      0.37227903903555      3.19498270875094
  O          -2.00643583133273      1.00719807059166      0.25388002911216
  C          -2.08313653808742      2.44440502217387      0.37130343421710
  C          -2.30160093578723      3.01173524346353     -1.00914467789276
  O           0.07067498144704      0.29360698676753      1.57965089964772
  C           1.00913685765428      0.23455352113961      0.58558428800253
  C           0.72214784141575     -0.12220529489196     -0.73614325807436
  C           1.75232012395301     -0.15051500298183     -1.66914459194352
  C           3.04403781835913      0.17392810457201     -1.26949149423674
  N           4.12486938483117      0.14169542361853     -2.25906798370149
  O           3.84776940876487     -0.17485667882624     -3.39620458733922
  O           5.24264888384545      0.43345773320856     -1.89100354713861
  C           3.34032071395374      0.52815591653210      0.04514098028939
  C           2.31308091524511      0.55790706798479      0.97559463450862
  H          -1.36623028002782     -4.63906686928826      0.93757491746775
  H          -0.76956179235599     -3.54017981782391     -0.33629043158019
  H          -2.52651613886249     -3.71294873488764     -0.05120810445689
  H          -0.49581756096597     -2.50253568067902      1.92747674893043
  H          -2.24530842676503     -2.68709126628886      2.23769440269154
  H          -2.91109914164013      2.69160601584654      1.05328619269168
  H          -1.14597595841996      2.81950549315523      0.81299220000956
  H          -2.38401464802983      4.10617625601091     -0.94681046726192
  H          -3.22862640065819      2.61703821343617     -1.44959408272021
  H          -1.45979940427289      2.76207430124910     -1.67119348516187
  H          -0.29052960998361     -0.37889317990918     -1.04421465033574
  H           1.55288311028778     -0.42329068044402     -2.70549710593778
  H           4.36313395536070      0.77705551252568      0.32821773111960
  H           2.50324303102703      0.82982554733224      2.01527517584638
