32
Coordinates from ORCA-job opt E -1558.841626987186
  C      -1.139872     -3.644634      0.506883
  C      -1.421297     -2.516307      1.477683
  O      -1.823774     -1.375046      0.738222
  P      -1.707197      0.081011      1.438523
  S      -2.695343      0.303872      3.091642
  O      -2.147074      1.050932      0.217918
  C      -2.083724      2.454405      0.411605
  C      -2.042242      3.126529     -0.945341
  O      -0.111783      0.316377      1.544603
  C       0.820199      0.227240      0.549890
  C       0.543176     -0.094421     -0.777763
  C       1.579468     -0.157604     -1.716285
  C       2.896206      0.103634     -1.316408
  N       3.984569      0.037765     -2.299809
  O       3.688858     -0.252110     -3.467658
  O       5.134124      0.276001     -1.903286
  C       3.180316      0.427074      0.015140
  C       2.136969      0.486916      0.942464
  H      -0.835921     -4.550478      1.038750
  H      -0.345747     -3.362363     -0.192248
  H      -2.027961     -3.868090     -0.093450
  H      -0.523158     -2.295236      2.062932
  H      -2.227466     -2.801999      2.159927
  H      -2.971217      2.778963      0.962971
  H      -1.191632      2.720862      0.987117
  H      -2.003987      4.214411     -0.841071
  H      -2.924405      2.858608     -1.536136
  H      -1.166339      2.795156     -1.512864
  H      -0.467088     -0.302394     -1.119721
  H       1.341895     -0.410577     -2.748187
  H       4.196570      0.633259      0.345033
  H       2.354879      0.738247      1.978924
32
Coordinates from ORCA-job opt E -1558.847835802691
  C      -1.203662     -3.640492      0.478883
  C      -1.443116     -2.528418      1.476217
  O      -1.820480     -1.349042      0.754659
  P      -1.668284      0.089851      1.461184
  S      -2.588034      0.330056      3.139961
  O      -2.135196      1.031348      0.241328
  C      -2.103577      2.454845      0.403212
  C      -2.090810      3.090019     -0.969742
  O      -0.065349      0.321914      1.552330
  C       0.868955      0.233841      0.554895
  C       0.579737     -0.086110     -0.773222
  C       1.610470     -0.146517     -1.706287
  C       2.917783      0.113591     -1.303261
  N       3.994580      0.049661     -2.284644
  O       3.708020     -0.232012     -3.430487
  O       5.125331      0.280868     -1.907589
  C       3.216301      0.434036      0.020346
  C       2.185410      0.492947      0.948089
  H      -0.924410     -4.566328      0.999801
  H      -0.396158     -3.370264     -0.218295
  H      -2.108974     -3.829792     -0.116961
  H      -0.529328     -2.339723      2.063066
  H      -2.254720     -2.797364      2.170527
  H      -2.994769      2.769595      0.968761
  H      -1.206405      2.753410      0.969671
  H      -2.084373      4.184973     -0.882884
  H      -2.976695      2.786546     -1.547354
  H      -1.199783      2.776844     -1.534766
  H      -0.435867     -0.292421     -1.108226
  H       1.381187     -0.396033     -2.742297
  H       4.239962      0.638070      0.334785
  H       2.402254      0.742099      1.988299
32
Coordinates from ORCA-job opt E -1558.849578756579
  C      -1.259727     -3.622547      0.437873
  C      -1.457039     -2.530914      1.462458
  O      -1.810566     -1.318992      0.764294
  P      -1.633666      0.101584      1.478972
  S      -2.477476      0.352990      3.185416
  O      -2.124033      1.020012      0.264182
  C      -2.132870      2.455896      0.401926
  C      -2.148024      3.061699     -0.981188
  O      -0.025046      0.335925      1.561884
  C       0.911801      0.242699      0.565216
  C       0.612700     -0.095313     -0.757601
  C       1.641233     -0.161494     -1.689092
  C       2.943635      0.109624     -1.289394
  N       4.020121      0.037550     -2.276463
  O       3.733012     -0.259300     -3.411885
  O       5.145395      0.279576     -1.909413
  C       3.250963      0.447704      0.025895
  C       2.226599      0.513040      0.955761
  H      -1.003324     -4.564477      0.944272
  H      -0.444989     -3.364065     -0.256192
  H      -2.178420     -3.778332     -0.148203
  H      -0.533606     -2.370086      2.044601
  H      -2.268457     -2.780099      2.165700
  H      -3.025448      2.747097      0.979441
  H      -1.239239      2.781561      0.961339
  H      -2.179819      4.158344     -0.904899
  H      -3.030137      2.723900     -1.546482
  H      -1.244673      2.776941     -1.542759
  H      -0.406419     -0.309801     -1.078024
  H       1.421550     -0.423614     -2.724142
  H       4.278818      0.658494      0.321850
  H       2.437152      0.774397      1.994658
32
Coordinates from ORCA-job opt E -1558.850088368762
  C      -1.320902     -3.632035      0.440609
  C      -1.482143     -2.542968      1.471812
  O      -1.804054     -1.314710      0.778643
  P      -1.608698      0.099587      1.487058
  S      -2.395559      0.373926      3.211906
  O      -2.103450      1.004044      0.271688
  C      -2.137782      2.445540      0.388486
  C      -2.174973      3.027521     -1.002527
  O       0.005211      0.327883      1.568311
  C       0.941639      0.245790      0.570268
  C       0.634233     -0.067790     -0.757398
  C       1.661491     -0.123265     -1.691814
  C       2.965263      0.134215     -1.288237
  N       4.042593      0.073017     -2.281600
  O       3.750800     -0.214629     -3.420621
  O       5.172086      0.298153     -1.909031
  C       3.279963      0.448486      0.031225
  C       2.257790      0.504085      0.964907
  H      -1.094005     -4.582245      0.945809
  H      -0.496521     -3.397952     -0.249420
  H      -2.245829     -3.759046     -0.141216
  H      -0.554210     -2.403157      2.050819
  H      -2.297418     -2.762595      2.179144
  H      -3.028638      2.721675      0.974372
  H      -1.246157      2.788221      0.939264
  H      -2.230552      4.124042     -0.937520
  H      -3.055729      2.666725     -1.554140
  H      -1.268358      2.757994     -1.564686
  H      -0.388997     -0.269419     -1.071804
  H       1.446112     -0.364679     -2.732824
  H       4.312273      0.647662      0.319500
  H       2.464521      0.745924      2.009016
32
Coordinates from ORCA-job opt E -1558.849321871084
  C      -1.341442     -3.618329      0.413918
  C      -1.482072     -2.537667      1.455699
  O      -1.789753     -1.298288      0.774071
  P      -1.594760      0.110350      1.486447
  S      -2.344202      0.382845      3.226929
  O      -2.095536      1.016409      0.278771
  C      -2.156332      2.458207      0.394697
  C      -2.225473      3.036120     -0.995888
  O       0.022131      0.341858      1.567793
  C       0.960455      0.245047      0.574269
  C       0.656612     -0.103771     -0.745749
  C       1.686375     -0.174558     -1.677747
  C       2.988306      0.101602     -1.277227
  N       4.069809      0.023280     -2.268029
  O       3.770184     -0.229162     -3.416055
  O       5.186533      0.336899     -1.912867
  C       3.299312      0.450418      0.035050
  C       2.274163      0.520760      0.966148
  H      -1.130762     -4.576207      0.910958
  H      -0.513189     -3.392988     -0.273002
  H      -2.269537     -3.725019     -0.165454
  H      -0.550931     -2.410425      2.030400
  H      -2.297155     -2.746225      2.165094
  H      -3.042868      2.712499      0.994946
  H      -1.264122      2.813891      0.934063
  H      -2.303696      4.130878     -0.929720
  H      -3.107296      2.658022     -1.532438
  H      -1.321834      2.786364     -1.570090
  H      -0.366026     -0.320321     -1.051198
  H       1.479634     -0.442933     -2.713847
  H       4.331332      0.662351      0.314659
  H       2.472138      0.788095      2.005400
32
Coordinates from ORCA-job opt E -1558.850195387855
  C      -1.321439     -3.612493      0.402738
  C      -1.469430     -2.533179      1.445512
  O      -1.784483     -1.296405      0.765863
  P      -1.599296      0.112950      1.482797
  S      -2.359588      0.373729      3.222434
  O      -2.100696      1.026217      0.278754
  C      -2.162357      2.465611      0.404082
  C      -2.238412      3.052767     -0.982771
  O       0.016427      0.349743      1.564900
  C       0.954524      0.249461      0.572270
  C       0.654686     -0.113884     -0.744548
  C       1.684945     -0.188283     -1.675840
  C       2.985760      0.099696     -1.278170
  N       4.067233      0.019062     -2.267062
  O       3.781164     -0.307993     -3.399569
  O       5.193735      0.280419     -1.900852
  C       3.293379      0.461521      0.031668
  C       2.267015      0.534891      0.961489
  H      -1.105622     -4.570366      0.897203
  H      -0.494821     -3.380649     -0.284036
  H      -2.247992     -3.722798     -0.178465
  H      -0.538912     -2.402112      2.020175
  H      -2.283610     -2.749831      2.153488
  H      -3.047453      2.716419      1.007881
  H      -1.268251      2.820168      0.940916
  H      -2.316343      4.147024     -0.911216
  H      -3.122165      2.676615     -1.517564
  H      -1.338247      2.805100     -1.563367
  H      -0.366205     -0.339668     -1.049435
  H       1.478689     -0.468418     -2.708872
  H       4.323561      0.681652      0.311549
  H       2.464201      0.813033      1.998048
32
Coordinates from ORCA-job opt E -1558.850192165869
  C      -1.358926     -3.651854      0.459181
  C      -1.499653     -2.554441      1.484553
  O      -1.794362     -1.324829      0.784894
  P      -1.598546      0.092323      1.485822
  S      -2.376473      0.380556      3.214848
  O      -2.079467      0.998812      0.267372
  C      -2.114840      2.439467      0.374532
  C      -2.188076      3.009598     -1.019939
  O       0.019091      0.312816      1.573399
  C       0.952692      0.243201      0.574345
  C       0.643861     -0.042696     -0.759313
  C       1.669535     -0.085796     -1.696880
  C       2.976460      0.157029     -1.289588
  N       4.052334      0.109138     -2.284352
  O       3.757609     -0.152342     -3.430585
  O       5.183685      0.331108     -1.910305
  C       3.293224      0.444851      0.036258
  C       2.270995      0.488078      0.971822
  H      -1.159947     -4.605729      0.968308
  H      -0.524846     -3.441114     -0.225894
  H      -2.282611     -3.757172     -0.128038
  H      -0.570470     -2.428408      2.063239
  H      -2.321197     -2.752376      2.189987
  H      -2.992891      2.716045      0.978043
  H      -1.211190      2.786362      0.900893
  H      -2.244027      4.106180     -0.964451
  H      -3.081948      2.642236     -1.544567
  H      -1.296843      2.734851     -1.602752
  H      -0.381634     -0.231900     -1.073845
  H       1.453878     -0.305579     -2.742531
  H       4.327403      0.632611      0.325063
  H       2.477180      0.708973      2.020480
32
Coordinates from ORCA-job opt E -1558.850258236139
  C      -1.348346     -3.632738      0.428156
  C      -1.484102     -2.543624      1.462810
  O      -1.783681     -1.309179      0.773827
  P      -1.595053      0.103715      1.483566
  S      -2.365552      0.377393      3.218351
  O      -2.083691      1.015213      0.272746
  C      -2.135422      2.454752      0.388898
  C      -2.230221      3.031824     -1.001340
  O       0.022571      0.332009      1.570293
  C       0.958254      0.246508      0.574854
  C       0.655402     -0.080630     -0.750801
  C       1.683553     -0.140164     -1.684864
  C       2.987263      0.127047     -1.281887
  N       4.066006      0.061941     -2.272762
  O       3.776479     -0.234727     -3.412185
  O       5.194325      0.307271     -1.902807
  C       3.298356      0.454486      0.036195
  C       2.273607      0.513438      0.968276
  H      -1.147246     -4.590654      0.928703
  H      -0.517464     -3.416632     -0.258945
  H      -2.274905     -3.733270     -0.155200
  H      -0.551858     -2.420142      2.036791
  H      -2.301582     -2.746942      2.171252
  H      -3.010510      2.716357      1.003071
  H      -1.230640      2.808739      0.908306
  H      -2.299538      4.127207     -0.938739
  H      -3.124934      2.656260     -1.518463
  H      -1.341760      2.771893     -1.594877
  H      -0.367621     -0.289700     -1.060661
  H       1.473486     -0.392257     -2.724337
  H       4.330395      0.659709      0.320727
  H       2.474431      0.764899      2.011044
32
Coordinates from ORCA-job opt E -1558.850279015462
  C      -1.359055     -3.630693      0.421670
  C      -1.482320     -2.541675      1.458004
  O      -1.776966     -1.305147      0.771168
  P      -1.589307      0.106651      1.482396
  S      -2.358623      0.378419      3.218495
  O      -2.077466      1.019674      0.273062
  C      -2.135683      2.458635      0.389910
  C      -2.257527      3.034143     -0.998944
  O       0.029356      0.334836      1.569899
  C       0.965462      0.246837      0.575502
  C       0.665342     -0.086808     -0.749355
  C       1.694608     -0.148855     -1.681868
  C       2.997508      0.122306     -1.278583
  N       4.077430      0.054766     -2.267615
  O       3.790132     -0.248480     -3.405964
  O       5.204712      0.305327     -1.897755
  C       3.306244      0.455835      0.038590
  C       2.280281      0.517116      0.969024
  H      -1.163824     -4.590997      0.919909
  H      -0.529358     -3.420126     -0.268588
  H      -2.288696     -3.722772     -0.158215
  H      -0.546207     -2.424448      2.026928
  H      -2.297625     -2.740367      2.170268
  H      -3.002040      2.715723      1.018239
  H      -1.224071      2.817759      0.893579
  H      -2.332015      4.129156     -0.936353
  H      -3.158837      2.652609     -1.500010
  H      -1.378037      2.778350     -1.607480
  H      -0.356897     -0.299027     -1.059531
  H       1.486564     -0.405823     -2.720554
  H       4.337728      0.663876      0.323111
  H       2.479187      0.773200      2.011062
32
Coordinates from ORCA-job opt E -1558.850309102815
  C      -1.400585     -3.630586      0.409812
  C      -1.478298     -2.538213      1.447228
  O      -1.755804     -1.296853      0.763631
  P      -1.570247      0.112809      1.477589
  S      -2.345386      0.383153      3.212600
  O      -2.050370      1.029043      0.268722
  C      -2.126367      2.466254      0.385469
  C      -2.336134      3.033181     -0.996704
  O       0.051166      0.337421      1.571865
  C       0.988440      0.246670      0.580321
  C       0.694049     -0.093784     -0.744377
  C       1.725627     -0.158516     -1.673658
  C       3.027224      0.117001     -1.268571
  N       4.109426      0.047035     -2.253724
  O       3.826788     -0.266119     -3.390595
  O       5.234555      0.306419     -1.883369
  C       3.331071      0.457236      0.048191
  C       2.302582      0.520750      0.975127
  H      -1.223969     -4.596497      0.904034
  H      -0.577485     -3.441811     -0.294604
  H      -2.341711     -3.696254     -0.155202
  H      -0.528470     -2.442016      1.997102
  H      -2.284601     -2.718084      2.174727
  H      -2.960844      2.713194      1.059573
  H      -1.192991      2.841593      0.834574
  H      -2.424329      4.127206     -0.935800
  H      -3.258207      2.633403     -1.442961
  H      -1.488999      2.786677     -1.653196
  H      -0.326813     -0.309739     -1.056863
  H       1.521167     -0.420830     -2.711722
  H       4.361549      0.668498      0.334093
  H       2.497968      0.781756      2.016689
32
Coordinates from ORCA-job opt E -1558.850322665601
  C      -1.414065     -3.635920      0.414540
  C      -1.476989     -2.539316      1.448482
  O      -1.753692     -1.298804      0.763075
  P      -1.567256      0.111556      1.475748
  S      -2.347409      0.384705      3.207863
  O      -2.043085      1.027225      0.264602
  C      -2.121949      2.464201      0.381123
  C      -2.342106      3.030204     -0.999832
  O       0.054154      0.333621      1.572794
  C       0.991917      0.245668      0.581326
  C       0.697432     -0.088353     -0.744952
  C       1.729220     -0.149928     -1.674255
  C       3.030994      0.122107     -1.267693
  N       4.113323      0.055586     -2.253042
  O       3.830548     -0.252122     -3.391293
  O       5.238594      0.312091     -1.881318
  C       3.334925      0.455760      0.050719
  C       2.306285      0.516338      0.977689
  H      -1.237083     -4.600722      0.910807
  H      -0.596960     -3.453661     -0.298537
  H      -2.360799     -3.699503     -0.141300
  H      -0.521955     -2.446195      1.989879
  H      -2.277790     -2.712618      2.183670
  H      -2.951794      2.710144      1.061326
  H      -1.185923      2.841501      0.823145
  H      -2.430507      4.124210     -0.938811
  H      -3.266979      2.629635     -1.439618
  H      -1.499367      2.783949     -1.662030
  H      -0.323469     -0.301406     -1.059155
  H       1.524279     -0.407090     -2.713519
  H       4.365463      0.664590      0.338192
  H       2.502043      0.772545      2.020373
32
Coordinates from ORCA-job opt E -1558.850342827435
  C      -1.468495     -3.652906      0.427760
  C      -1.465188     -2.541538      1.447475
  O      -1.747110     -1.304112      0.758516
  P      -1.556799      0.108066      1.467932
  S      -2.350925      0.388966      3.191286
  O      -2.020350      1.022385      0.250360
  C      -2.110841      2.458505      0.368040
  C      -2.367565      3.022297     -1.007307
  O       0.064073      0.321930      1.573356
  C       1.004776      0.242078      0.583139
  C       0.712230     -0.076605     -0.747205
  C       1.746292     -0.128726     -1.674860
  C       3.047276      0.137032     -1.262689
  N       4.131766      0.080949     -2.246967
  O       3.850943     -0.214285     -3.388803
  O       5.256240      0.332528     -1.870027
  C       3.348972      0.455209      0.059933
  C       2.318398      0.506674      0.985473
  H      -1.281735     -4.612916      0.929721
  H      -0.684254     -3.494015     -0.326631
  H      -2.441744     -3.710374     -0.080968
  H      -0.486087     -2.459631      1.946255
  H      -2.236021     -2.690256      2.219375
  H      -2.924417      2.698627      1.069677
  H      -1.166742      2.843276      0.786187
  H      -2.457608      4.116077     -0.944110
  H      -3.301467      2.619185     -1.425234
  H      -1.539909      2.778887     -1.689200
  H      -0.307729     -0.284510     -1.067476
  H       1.541955     -0.373738     -2.717193
  H       4.378777      0.659700      0.353094
  H       2.513289      0.751241      2.031090
32
Coordinates from ORCA-job opt E -1558.850346410399
  C      -1.464023     -3.651564      0.425164
  C      -1.464457     -2.541057      1.445726
  O      -1.747114     -1.303534      0.757084
  P      -1.558061      0.108205      1.468008
  S      -2.350916      0.386657      3.192259
  O      -2.023470      1.023042      0.251408
  C      -2.113367      2.459253      0.370615
  C      -2.361978      3.025218     -1.005241
  O       0.062212      0.323703      1.573000
  C       1.003057      0.242720      0.582944
  C       0.710471     -0.081977     -0.745840
  C       1.744299     -0.135469     -1.673726
  C       3.044843      0.134780     -1.262940
  N       4.129167      0.077133     -2.247442
  O       3.848403     -0.222470     -3.388206
  O       5.253374      0.331871     -1.871684
  C       3.346480      0.458829      0.058272
  C       2.316076      0.511756      0.984043
  H      -1.275564     -4.611354      0.926932
  H      -0.678749     -3.490343     -0.327660
  H      -2.436365     -3.711232     -0.084953
  H      -0.486551     -2.457770      1.946574
  H      -2.236619     -2.691467      2.215948
  H      -2.930925      2.698360      1.067916
  H      -1.171720      2.842863      0.795211
  H      -2.451837      4.118947     -0.940634
  H      -3.293719      2.623548     -1.429228
  H      -1.530533      2.782713     -1.682824
  H      -0.309298     -0.293633     -1.064482
  H       1.540258     -0.385132     -2.715003
  H       4.375987      0.666639      0.350108
  H       2.510641      0.760763      2.028652
32
Coordinates from ORCA-job opt E -1558.850349029652
  C      -1.477106     -3.654039      0.423830
  C      -1.462184     -2.541549      1.441946
  O      -1.744394     -1.303867      0.753272
  P      -1.555875      0.107264      1.466212
  S      -2.347894      0.383298      3.191115
  O      -2.022147      1.023084      0.250485
  C      -2.113305      2.459263      0.371943
  C      -2.363593      3.026826     -1.002781
  O       0.063687      0.323259      1.571730
  C       1.005550      0.242773      0.582333
  C       0.714839     -0.090490     -0.744672
  C       1.749267     -0.143246     -1.672010
  C       3.048217      0.135913     -1.261946
  N       4.133300      0.079001     -2.245849
  O       3.854239     -0.226271     -3.385602
  O       5.256278      0.340116     -1.870594
  C       3.347892      0.468130      0.057666
  C       2.316805      0.520513      0.982883
  H      -1.286290     -4.613135      0.926079
  H      -0.698899     -3.497408     -0.337256
  H      -2.455012     -3.711979     -0.075596
  H      -0.479437     -2.461986      1.933791
  H      -2.228177     -2.686320      2.219399
  H      -2.930760      2.695790      1.070214
  H      -1.172054      2.843268      0.796942
  H      -2.453634      4.120451     -0.936280
  H      -3.295714      2.625961     -1.426546
  H      -1.532664      2.785837     -1.681513
  H      -0.303768     -0.309490     -1.062047
  H       1.547085     -0.399347     -2.712072
  H       4.376262      0.682639      0.348613
  H       2.509487      0.775742      2.026313
32
Coordinates from ORCA-job opt E -1558.850350873098
  C      -1.485738     -3.656881      0.424946
  C      -1.465018     -2.543532      1.442045
  O      -1.743554     -1.305488      0.752529
  P      -1.554652      0.105421      1.466120
  S      -2.345496      0.380861      3.191824
  O      -2.021573      1.021665      0.250924
  C      -2.111169      2.457984      0.372655
  C      -2.359563      3.026004     -1.002217
  O       0.064803      0.321419      1.571175
  C       1.006740      0.242554      0.581642
  C       0.717085     -0.094693     -0.744615
  C       1.751489     -0.145484     -1.672044
  C       3.049449      0.139485     -1.262713
  N       4.134584      0.084483     -2.246620
  O       3.856326     -0.223106     -3.385964
  O       5.256848      0.349439     -1.871869
  C       3.348091      0.475630      0.056131
  C       2.316966      0.526099      0.981425
  H      -1.297110     -4.616129      0.927749
  H      -0.708215     -3.503544     -0.337494
  H      -2.464708     -3.712107     -0.072651
  H      -0.481188     -2.467127      1.932181
  H      -2.230359     -2.684835      2.220781
  H      -2.929346      2.694996      1.069921
  H      -1.170105      2.840998      0.798916
  H      -2.448472      4.119725     -0.935720
  H      -3.291788      2.626250     -1.426785
  H      -1.528342      2.784210     -1.680310
  H      -0.300764     -0.318502     -1.061003
  H       1.550301     -0.404559     -2.711558
  H       4.375760      0.694525      0.346288
  H       2.508718      0.784240      2.024311
32
Coordinates from ORCA-job opt E -1558.850353075768
  C      -1.507630     -3.664508      0.429068
  C      -1.470901     -2.548931      1.443361
  O      -1.742138     -1.310268      0.752161
  P      -1.551882      0.100444      1.466303
  S      -2.342368      0.376254      3.192440
  O      -2.018029      1.017184      0.251147
  C      -2.103889      2.453815      0.372439
  C      -2.347721      3.022086     -1.003184
  O       0.067517      0.315325      1.571466
  C       1.009274      0.241590      0.581384
  C       0.721315     -0.101746     -0.743695
  C       1.755186     -0.146557     -1.671916
  C       3.051172      0.149987     -1.264371
  N       4.135889      0.100944     -2.248942
  O       3.858803     -0.209404     -3.387819
  O       5.256741      0.373288     -1.875302
  C       3.348189      0.491962      0.053328
  C       2.317465      0.536806      0.979334
  H      -1.323560     -4.624131      0.932871
  H      -0.733616     -3.519323     -0.338521
  H      -2.490170     -3.712860     -0.062143
  H      -0.483445     -2.480030      1.927239
  H      -2.232852     -2.681844      2.226899
  H      -2.923349      2.693050      1.067443
  H      -1.162913      2.834551      0.800917
  H      -2.433768      4.116085     -0.937483
  H      -3.280192      2.624669     -1.429429
  H      -1.515820      2.777709     -1.679537
  H      -0.295036     -0.335168     -1.058041
  H       1.555486     -0.409972     -2.710624
  H       4.374419      0.719669      0.341820
  H       2.507823      0.799323      2.021387
32
Coordinates from ORCA-job opt E -1558.850356119606
  C      -1.518907     -3.669266      0.432212
  C      -1.476102     -2.553176      1.445793
  O      -1.742720     -1.313989      0.753865
  P      -1.551112      0.096721      1.467663
  S      -2.341696      0.373788      3.193726
  O      -2.016051      1.013444      0.252095
  C      -2.098225      2.450372      0.372063
  C      -2.334354      3.018347     -1.005087
  O       0.068506      0.310386      1.572851
  C       1.009536      0.240779      0.581875
  C       0.721902     -0.105181     -0.742617
  C       1.754849     -0.145433     -1.672007
  C       3.049823      0.157887     -1.266180
  N       4.133642      0.113421     -2.251893
  O       3.856557     -0.197445     -3.390616
  O       5.253847      0.389849     -1.879357
  C       3.346580      0.502300      0.050950
  C       2.316706      0.542904      0.978049
  H      -1.338616     -4.629515      0.936176
  H      -0.745149     -3.527819     -0.336329
  H      -2.502180     -3.713327     -0.057955
  H      -0.487658     -2.488166      1.928175
  H      -2.237587     -2.682391      2.230395
  H      -2.920197      2.692554      1.063066
  H      -1.158089      2.828866      0.804373
  H      -2.418242      4.112584     -0.940732
  H      -3.265777      2.622536     -1.435141
  H      -1.499990      2.771477     -1.677507
  H      -0.293641     -0.344283     -1.055312
  H       1.555417     -0.410625     -2.710317
  H       4.372051      0.735167      0.338037
  H       2.506879      0.807237      2.019684
32
Coordinates from ORCA-job opt E -1558.850359742934
  C      -1.536261     -3.676218      0.436505
  C      -1.483354     -2.559786      1.449321
  O      -1.744594     -1.319689      0.757222
  P      -1.550268      0.090968      1.470113
  S      -2.341979      0.370664      3.195280
  O      -2.011967      1.007757      0.253487
  C      -2.088759      2.445066      0.371223
  C      -2.312087      3.012394     -1.008427
  O       0.069880      0.301697      1.575972
  C       1.009563      0.238749      0.583420
  C       0.722274     -0.111770     -0.739968
  C       1.753552     -0.144436     -1.671458
  C       3.046788      0.170253     -1.268787
  N       4.128934      0.133379     -2.256619
  O       3.851704     -0.178782     -3.394923
  O       5.248007      0.416952     -1.886123
  C       3.343296      0.518844      0.047310
  C       2.315002      0.552429      0.976388
  H      -1.360835     -4.637538      0.940104
  H      -0.764111     -3.539877     -0.334571
  H      -2.521257     -3.713788     -0.050790
  H      -0.492856     -2.500259      1.928191
  H      -2.242945     -2.683980      2.236563
  H      -2.914817      2.691902      1.055655
  H      -1.150222      2.820302      0.809852
  H      -2.393227      4.106941     -0.946147
  H      -3.241235      2.618535     -1.445183
  H      -1.473192      2.762044     -1.673909
  H      -0.291829     -0.360368     -1.049971
  H       1.554269     -0.412752     -2.709003
  H       4.367418      0.760401      0.332052
  H       2.505111      0.819964      2.017223
32
Coordinates from ORCA-job opt E -1558.850356336279
  C      -1.551793     -3.681754      0.439181
  C      -1.489403     -2.565402      1.451561
  O      -1.746835     -1.324320      0.759986
  P      -1.549494      0.086080      1.472188
  S      -2.342172      0.368150      3.196387
  O      -2.007707      1.003325      0.254698
  C      -2.080473      2.440870      0.370995
  C      -2.292604      3.007956     -1.010588
  O       0.071211      0.293416      1.578913
  C       1.009662      0.236397      0.584874
  C       0.723078     -0.120343     -0.737006
  C       1.752897     -0.146290     -1.670334
  C       3.044097      0.180615     -1.270919
  N       4.124784      0.150296     -2.260613
  O       3.847804     -0.165129     -3.398069
  O       5.242458      0.442137     -1.892346
  C       3.339977      0.535020      0.043767
  C       2.313074      0.562336      0.974588
  H      -1.380069     -4.644048      0.942169
  H      -0.781690     -3.549586     -0.334661
  H      -2.538643     -3.713723     -0.044773
  H      -0.496859     -2.510491      1.926729
  H      -2.246692     -2.685518      2.241653
  H      -2.910224      2.691051      1.049702
  H      -1.143686      2.813572      0.815512
  H      -2.372006      4.102691     -0.949589
  H      -3.219351      2.615476     -1.453648
  H      -1.449425      2.755346     -1.669781
  H      -0.289295     -0.379108     -1.044349
  H       1.554032     -0.419104     -2.706791
  H       4.362512      0.785829      0.326207
  H       2.502834      0.834254      2.014352
32
Coordinates from ORCA-job opt E -1558.850357289095
  C      -1.544959     -3.679067      0.437347
  C      -1.487317     -2.563386      1.450679
  O      -1.747617     -1.322406      0.759938
  P      -1.550181      0.087968      1.471917
  S      -2.343175      0.370226      3.195741
  O      -2.007851      1.005305      0.254306
  C      -2.082679      2.442684      0.371003
  C      -2.298042      3.009751     -1.010070
  O       0.070669      0.294709      1.579081
  C       1.009174      0.236251      0.585128
  C       0.722102     -0.119190     -0.736973
  C       1.752181     -0.147006     -1.670025
  C       3.044015      0.176695     -1.270101
  N       4.124877      0.144628     -2.259604
  O       3.847593     -0.170305     -3.397133
  O       5.242931      0.434737     -1.891092
  C       3.340376      0.529709      0.044849
  C       2.313232      0.558930      0.975378
  H      -1.371475     -4.641235      0.939969
  H      -0.774003     -3.544290     -0.335189
  H      -2.530953     -3.713369     -0.048182
  H      -0.495698     -2.505863      1.927472
  H      -2.245384     -2.686266      2.239603
  H      -2.911520      2.691421      1.051352
  H      -1.145688      2.816672      0.814006
  H      -2.379060      4.104337     -0.948517
  H      -3.224887      2.616008     -1.451780
  H      -1.455521      2.758652     -1.670669
  H      -0.290734     -0.375329     -1.044990
  H       1.552831     -0.418834     -2.706646
  H       4.363351      0.778024      0.327878
  H       2.503411      0.829838      2.015324
32
Coordinates from ORCA-job opt E -1558.850359771861
  C      -1.541088     -3.676949      0.435327
  C      -1.486776     -2.561990      1.449551
  O      -1.749410     -1.320907      0.759810
  P      -1.550504      0.089226      1.471667
  S      -2.343836      0.372279      3.194983
  O      -2.006436      1.007198      0.253880
  C      -2.083137      2.444405      0.371303
  C      -2.301601      3.011735     -1.009145
  O       0.070675      0.293607      1.579651
  C       1.009137      0.234554      0.585584
  C       0.722148     -0.122205     -0.736143
  C       1.752320     -0.150515     -1.669145
  C       3.044038      0.173928     -1.269491
  N       4.124869      0.141695     -2.259068
  O       3.847769     -0.174857     -3.396205
  O       5.242649      0.433458     -1.891004
  C       3.340321      0.528156      0.045141
  C       2.313081      0.557907      0.975595
  H      -1.366230     -4.639067      0.937575
  H      -0.769562     -3.540180     -0.336290
  H      -2.526516     -3.712949     -0.051208
  H      -0.495818     -2.502536      1.927477
  H      -2.245308     -2.687091      2.237694
  H      -2.911099      2.691606      1.053286
  H      -1.145976      2.819505      0.812992
  H      -2.384015      4.106176     -0.946810
  H      -3.228626      2.617038     -1.449594
  H      -1.459799      2.762074     -1.671193
  H      -0.290530     -0.378893     -1.044215
  H       1.552883     -0.423291     -2.705497
  H       4.363134      0.777056      0.328218
  H       2.503243      0.829826      2.015275
