27
Coordinates from ORCA-job opt E -876.482237550994
  C           3.68872202173575     -0.04888480559525     -1.25809508991611
  C           2.94335385273134     -0.16277518453447      0.04837018081165
  O           1.53784690491992      0.03810343439140     -0.21443237260920
  P           0.47477650050593      0.19047236339217      0.96047432161083
  O           0.69496813957423      1.23400934485771      1.99081510807534
  C           0.62765230404517     -1.43326269735538      1.78200324143502
  N           0.70172097360262     -2.44757877814256      2.33361326250985
  N          -0.96292184839944      0.21271306871890      0.18885755641903
  C          -2.07557452961134      0.96303353560826      0.78832754728832
  C          -2.25685981134427      2.34276702845053      0.17274924635575
  C          -1.23523522591783     -0.55002343847819     -1.03553973431338
  C          -1.91698700397597     -1.88925059089154     -0.78633760874612
  H           3.55405208964115      0.94892646073868     -1.69974292368641
  H           3.33595626181764     -0.80437067190343     -1.97497332366333
  H           4.76190355333479     -0.21076086127401     -1.08317981640642
  H           3.27648406379030      0.59494969776444      0.77394215001993
  H           3.07768024738826     -1.15988431530900      0.49900289001035
  H          -2.98886981091634      0.35852749577896      0.67329803815653
  H          -1.89983258637952      1.05345743860201      1.86982128334392
  H          -1.36522032395503      2.96207148159745      0.35179820349632
  H          -3.12563857405966      2.84810390892146      0.62050710044950
  H          -2.42333983911576      2.28013300487114     -0.91345093610570
  H          -0.28648317276222     -0.69575110929051     -1.56894211368592
  H          -1.85930737789140      0.08448049509870     -1.68481545515788
  H          -2.87491998811185     -1.76434648148267     -0.25896616220409
  H          -1.28013525915557     -2.55665389991091     -0.18635117280835
  H          -2.12379154149094     -2.38820595462386     -1.74466803067943
