27
Coordinates from ORCA-job opt E -876.468850572328
  C       3.319881      0.077143     -1.207550
  C       2.560775      0.161527      0.100345
  O       1.183226     -0.050211     -0.162746
  P       0.191580     -0.172646      1.110152
  O       0.579294      0.745321      2.234734
  C       0.513330     -1.854548      1.785864
  N       0.726361     -2.930733      2.178037
  N      -1.355068     -0.079147      0.540599
  C      -2.056060      1.186308      0.791697
  C      -1.532183      2.361539     -0.025617
  C      -1.676993     -0.604962     -0.789607
  C      -1.400618     -2.096702     -0.921802
  H       2.949410      0.824029     -1.917512
  H       3.176597     -0.903414     -1.673518
  H       4.389586      0.240174     -1.049497
  H       2.693521      1.151283      0.548101
  H       2.928746     -0.597403      0.797494
  H      -3.131058      1.065207      0.609373
  H      -1.974141      1.431186      1.857392
  H      -0.465673      2.531626      0.151845
  H      -2.065627      3.275850      0.254492
  H      -1.682706      2.206992     -1.098399
  H      -1.120446     -0.065607     -1.564390
  H      -2.743942     -0.461859     -1.001669
  H      -1.904371     -2.665505     -0.133414
  H      -0.329720     -2.315407     -0.885057
  H      -1.773702     -2.460040     -1.885264
27
Coordinates from ORCA-job opt E -876.475698053849
  C       3.334487     -0.018078     -1.232621
  C       2.609239      0.092758      0.090320
  O       1.200549     -0.022254     -0.154193
  P       0.199409     -0.093769      1.106612
  O       0.544047      0.825921      2.233260
  C       0.464715     -1.781314      1.749985
  N       0.636796     -2.859360      2.131271
  N      -1.328009     -0.023849      0.499766
  C      -2.084056      1.204224      0.811751
  C      -1.660942      2.439440      0.021457
  C      -1.627088     -0.607705     -0.821314
  C      -1.301325     -2.094505     -0.919008
  H       3.004465      0.772343     -1.923278
  H       3.126034     -0.986827     -1.711074
  H       4.418686      0.075092     -1.082998
  H       2.811640      1.064315      0.564326
  H       2.937388     -0.706979      0.775191
  H      -3.150142      0.997330      0.638406
  H      -1.993790      1.408982      1.889278
  H      -0.601990      2.682853      0.196821
  H      -2.260187      3.306270      0.336599
  H      -1.810671      2.305647     -1.060357
  H      -1.096296     -0.061889     -1.619394
  H      -2.702825     -0.482738     -1.008313
  H      -1.786343     -2.660481     -0.109636
  H      -0.217167     -2.283694     -0.882148
  H      -1.666626     -2.491731     -1.876621
27
Coordinates from ORCA-job opt E -876.478327359665
  C       3.333866     -0.144802     -1.256444
  C       2.650747      0.020568      0.079496
  O       1.222714     -0.013235     -0.136261
  P       0.220551     -0.003002      1.114167
  O       0.519849      0.957433      2.207379
  C       0.446275     -1.677386      1.776191
  N       0.585987     -2.748116      2.185785
  N      -1.290275      0.026540      0.472737
  C      -2.114259      1.192065      0.841042
  C      -1.797250      2.467480      0.071305
  C      -1.567465     -0.574747     -0.847659
  C      -1.201561     -2.048116     -0.963910
  H       3.037078      0.659191     -1.947343
  H       3.071277     -1.110982     -1.713952
  H       4.424834     -0.105776     -1.122958
  H       2.910031      0.981127      0.550604
  H       2.937490     -0.791831      0.770722
  H      -3.160807      0.891729      0.673214
  H      -2.008148      1.361989      1.922436
  H      -0.757545      2.787048      0.249544
  H      -2.462025      3.279108      0.405176
  H      -1.938277      2.339071     -1.013790
  H      -1.068146      0.000183     -1.648108
  H      -2.650824     -0.459296     -1.001384
  H      -1.663614     -2.636243     -0.155759
  H      -0.112777     -2.211910     -0.943083
  H      -1.567728     -2.438092     -1.925063
27
Coordinates from ORCA-job opt E -876.479085977936
  C       3.340970     -0.229308     -1.272542
  C       2.682345     -0.052045      0.072576
  O       1.250836     -0.000739     -0.130256
  P       0.246164      0.060513      1.110703
  O       0.522921      1.054539      2.174704
  C       0.456124     -1.601813      1.809191
  N       0.580341     -2.662136      2.252628
  N      -1.257263      0.069270      0.449320
  C      -2.141661      1.176702      0.857873
  C      -1.914562      2.476985      0.100935
  C      -1.525328     -0.535666     -0.869854
  C      -1.140569     -2.001374     -0.987941
  H       3.085123      0.603505     -1.944046
  H       3.025103     -1.172572     -1.741802
  H       4.433146     -0.251231     -1.146268
  H       2.994344      0.881778      0.563813
  H       2.921501     -0.892292      0.747008
  H      -3.170513      0.813181      0.705308
  H      -2.016832      1.332262      1.938463
  H      -0.895337      2.856780      0.274786
  H      -2.625912      3.241438      0.448467
  H      -2.056001      2.349475     -0.983346
  H      -1.037312      0.049763     -1.668593
  H      -2.611065     -0.429037     -1.015554
  H      -1.605917     -2.600623     -0.190700
  H      -0.050971     -2.151129     -0.953596
  H      -1.489674     -2.386226     -1.957193
27
Coordinates from ORCA-job opt E -876.479729918454
  C       3.359252     -0.296056     -1.287522
  C       2.719016     -0.132509      0.067361
  O       1.293587      0.022201     -0.125144
  P       0.281995      0.124730      1.101911
  O       0.537215      1.145713      2.143161
  C       0.473621     -1.528288      1.840486
  N       0.578929     -2.575483      2.321055
  N      -1.210883      0.125199      0.415598
  C      -2.160769      1.156047      0.871683
  C      -2.047521      2.475260      0.123838
  C      -1.474785     -0.486076     -0.899467
  C      -1.106086     -1.956204     -0.997376
  H       3.161261      0.580788     -1.920011
  H       2.979186     -1.195578     -1.791917
  H       4.447240     -0.398247     -1.167046
  H       3.091063      0.756229      0.598042
  H       2.897283     -1.014123      0.705177
  H      -3.166212      0.722744      0.751396
  H      -2.004338      1.308021      1.948156
  H      -1.054497      2.923745      0.278775
  H      -2.804599      3.183563      0.491776
  H      -2.203636      2.342982     -0.957151
  H      -0.974391      0.087970     -1.697575
  H      -2.557932     -0.369350     -1.055725
  H      -1.605444     -2.546518     -0.214917
  H      -0.021016     -2.117367     -0.923845
  H      -1.427539     -2.339397     -1.976634
27
Coordinates from ORCA-job opt E -876.480210271235
  C       3.383892     -0.361271     -1.297249
  C       2.753929     -0.198139      0.062600
  O       1.339083      0.030928     -0.123144
  P       0.320553      0.179594      1.089379
  O       0.566575      1.227058      2.106678
  C       0.488940     -1.455772      1.885774
  N       0.571813     -2.482238      2.413860
  N      -1.159157      0.183519      0.378354
  C      -2.168081      1.126710      0.888023
  C      -2.179698      2.457260      0.151383
  C      -1.418718     -0.426108     -0.937081
  C      -1.096094     -1.909177     -1.016900
  H       3.230308      0.539293     -1.907889
  H       2.957226     -1.228421     -1.820458
  H       4.465164     -0.522343     -1.181996
  H       3.170046      0.658723      0.612772
  H       2.886171     -1.102403      0.678498
  H      -3.144812      0.624121      0.807993
  H      -1.976243      1.283410      1.958265
  H      -1.216731      2.974771      0.275703
  H      -2.973922      3.106365      0.548844
  H      -2.363302      2.318586     -0.924455
  H      -0.885473      0.126238     -1.728439
  H      -2.493694     -0.280479     -1.119605
  H      -1.644497     -2.478736     -0.252257
  H      -0.020697     -2.104030     -0.898549
  H      -1.392582     -2.287460     -2.006020
27
Coordinates from ORCA-job opt E -876.480550347562
  C       3.403772     -0.403495     -1.305613
  C       2.775338     -0.247110      0.056351
  O       1.372332      0.038381     -0.127676
  P       0.349538      0.222224      1.074020
  O       0.598049      1.281768      2.080149
  C       0.495808     -1.396375      1.914504
  N       0.558636     -2.404523      2.479359
  N      -1.115056      0.237251      0.340993
  C      -2.168212      1.100208      0.894734
  C      -2.280839      2.437461      0.177834
  C      -1.365316     -0.377684     -0.971947
  C      -1.099158     -1.874909     -1.019337
  H       3.288822      0.516853     -1.895157
  H       2.942307     -1.238941     -1.850875
  H       4.476999     -0.612139     -1.192333
  H       3.224233      0.581346      0.624285
  H       2.871494     -1.170075      0.650942
  H      -3.116598      0.542492      0.840099
  H      -1.955702      1.259290      1.961003
  H      -1.346704      3.009043      0.283607
  H      -3.102143      3.033501      0.602552
  H      -2.484172      2.299743     -0.894892
  H      -0.788246      0.140397     -1.755011
  H      -2.427439     -0.196366     -1.191366
  H      -1.695758     -2.408482     -0.264457
  H      -0.036822     -2.107979     -0.856557
  H      -1.375162     -2.261882     -2.011128
27
Coordinates from ORCA-job opt E -876.480950541273
  C       3.432871     -0.469646     -1.312782
  C       2.802170     -0.293480      0.046611
  O       1.412406      0.039334     -0.143884
  P       0.387142      0.281332      1.043596
  O       0.649620      1.358727      2.029715
  C       0.498935     -1.303349      1.953704
  N       0.532890     -2.279832      2.573490
  N      -1.055986      0.311895      0.282401
  C      -2.162196      1.055171      0.896016
  C      -2.408380      2.403336      0.233211
  C      -1.289019     -0.314763     -1.026941
  C      -1.120102     -1.828765     -1.028415
  H       3.358392      0.457155     -1.899439
  H       2.939241     -1.281751     -1.866009
  H       4.495959     -0.723050     -1.195097
  H       3.281290      0.517956      0.615087
  H       2.864897     -1.221659      0.638197
  H      -3.064888      0.424431      0.856107
  H      -1.932703      1.201592      1.961137
  H      -1.520042      3.045002      0.332791
  H      -3.262551      2.913724      0.702669
  H      -2.633366      2.286760     -0.838165
  H      -0.641976      0.145475     -1.790103
  H      -2.323762     -0.071450     -1.306720
  H      -1.784947     -2.300423     -0.288792
  H      -0.083959     -2.123295     -0.803300
  H      -1.371936     -2.230423     -2.020998
27
Coordinates from ORCA-job opt E -876.481262832456
  C       3.471615     -0.496353     -1.312440
  C       2.833282     -0.290971      0.039888
  O       1.444111      0.031034     -0.164271
  P       0.416275      0.310343      1.012954
  O       0.696230      1.390043      1.993549
  C       0.493853     -1.250817      1.963503
  N       0.502147     -2.205623      2.616548
  N      -1.008303      0.363441      0.227255
  C      -2.146046      1.013793      0.884606
  C      -2.479406      2.371310      0.281099
  C      -1.229451     -0.283052     -1.073973
  C      -1.199388     -1.805981     -1.020159
  H       3.398412      0.416985     -1.920686
  H       2.981099     -1.319916     -1.851959
  H       4.534448     -0.745932     -1.184190
  H       3.310085      0.535464      0.588806
  H       2.899887     -1.205628      0.652364
  H      -3.014176      0.335764      0.838538
  H      -1.910248      1.135910      1.952096
  H      -1.624636      3.055942      0.389943
  H      -3.349991      2.813681      0.788055
  H      -2.720235      2.286847     -0.790051
  H      -0.499707      0.091771     -1.807163
  H      -2.218174      0.045845     -1.423906
  H      -1.939553     -2.187006     -0.299463
  H      -0.206261     -2.181157     -0.727750
  H      -1.435866     -2.225738     -2.009106
27
Coordinates from ORCA-job opt E -876.481545846884
  C       3.519420     -0.487237     -1.303689
  C       2.865447     -0.258634      0.037395
  O       1.469953      0.020763     -0.185906
  P       0.437413      0.314808      0.985078
  O       0.728451      1.389368      1.968018
  C       0.493060     -1.238256      1.944681
  N       0.487323     -2.186444      2.606996
  N      -0.978607      0.383086      0.185263
  C      -2.129655      0.983852      0.868301
  C      -2.499348      2.351599      0.312014
  C      -1.201343     -0.286555     -1.103927
  C      -1.311476     -1.802780     -0.999837
  H       3.427975      0.405606     -1.939621
  H       3.054663     -1.338115     -1.823487
  H       4.587268     -0.705512     -1.159976
  H       3.317040      0.595805      0.564390
  H       2.953096     -1.152531      0.677667
  H      -2.980771      0.285778      0.802186
  H      -1.894872      1.076444      1.939429
  H      -1.660938      3.053095      0.440331
  H      -3.376855      2.754140      0.839798
  H      -2.744395      2.299862     -0.760295
  H      -0.404682     -0.002934     -1.805944
  H      -2.135181      0.125452     -1.513271
  H      -2.105696     -2.089485     -0.292777
  H      -0.366088     -2.252902     -0.657560
  H      -1.551199     -2.238272     -1.981171
27
Coordinates from ORCA-job opt E -876.481789243293
  C       3.574174     -0.476785     -1.288132
  C       2.897957     -0.224064      0.036828
  O       1.497081      0.010679     -0.211520
  P       0.460461      0.321558      0.953076
  O       0.757258      1.401653      1.926194
  C       0.502627     -1.225804      1.918032
  N       0.491209     -2.171348      2.584127
  N      -0.957020      0.389824      0.149240
  C      -2.116588      0.953728      0.853843
  C      -2.508052      2.331535      0.341605
  C      -1.191035     -0.299898     -1.127290
  C      -1.429727     -1.796609     -0.982720
  H       3.467965      0.393006     -1.952877
  H       3.140004     -1.356142     -1.786084
  H       4.645493     -0.661310     -1.123615
  H       3.317646      0.658061      0.543910
  H       3.001540     -1.093758      0.707351
  H      -2.954414      0.243156      0.759465
  H      -1.884279      1.012098      1.928008
  H      -1.682860      3.043411      0.495553
  H      -3.392379      2.700413      0.882433
  H      -2.750830      2.312530     -0.732126
  H      -0.344694     -0.102430     -1.798629
  H      -2.067259      0.184929     -1.583864
  H      -2.259061     -1.997053     -0.286444
  H      -0.531832     -2.311203     -0.605415
  H      -1.683384     -2.240179     -1.956865
27
Coordinates from ORCA-job opt E -876.481874533942
  C       3.604049     -0.440929     -1.268288
  C       2.906932     -0.176035      0.042542
  O       1.498324     -0.003048     -0.224234
  P       0.457388      0.293648      0.942693
  O       0.747455      1.380010      1.908446
  C       0.514111     -1.264635      1.887665
  N       0.519741     -2.224644      2.533185
  N      -0.975353      0.345214      0.154622
  C      -2.119953      0.957620      0.848983
  C      -2.447096      2.352507      0.339925
  C      -1.233330     -0.340894     -1.120313
  C      -1.494974     -1.832819     -0.977625
  H       3.468407      0.402792     -1.960217
  H       3.212248     -1.353404     -1.740354
  H       4.680482     -0.575376     -1.089369
  H       3.283363      0.736022      0.529655
  H       3.037011     -1.019765      0.740736
  H      -2.981763      0.281245      0.729247
  H      -1.901867      0.994026      1.926875
  H      -1.599230      3.032254      0.513456
  H      -3.324998      2.751660      0.869577
  H      -2.672447      2.349673     -0.737394
  H      -0.387241     -0.155618     -1.795742
  H      -2.103467      0.164858     -1.566906
  H      -2.310178     -2.027661     -0.263896
  H      -0.596862     -2.365904     -0.629433
  H      -1.780754     -2.260798     -1.949752
27
Coordinates from ORCA-job opt E -876.481940560088
  C       3.612076     -0.461958     -1.269011
  C       2.917030     -0.181637      0.039664
  O       1.509604     -0.000807     -0.228951
  P       0.471006      0.317031      0.933355
  O       0.761814      1.417330      1.882992
  C       0.520985     -1.230988      1.899599
  N       0.522662     -2.181762      2.558957
  N      -0.957862      0.364533      0.141678
  C      -2.115546      0.933795      0.848942
  C      -2.478163      2.326592      0.358494
  C      -1.209238     -0.323323     -1.132574
  C      -1.517755     -1.805919     -0.982401
  H       3.482067      0.376781     -1.967892
  H       3.213384     -1.375814     -1.732477
  H       4.687493     -0.602915     -1.089585
  H       3.299591      0.731589      0.519706
  H       3.040101     -1.020853      0.744331
  H      -2.960634      0.237635      0.724549
  H      -1.894484      0.962351      1.926484
  H      -1.647349      3.024598      0.540402
  H      -3.366242      2.697435      0.891813
  H      -2.702894      2.329988     -0.718954
  H      -0.342842     -0.169493     -1.789830
  H      -2.053132      0.202003     -1.604951
  H      -2.352905     -1.970958     -0.284389
  H      -0.642610     -2.360166     -0.609540
  H      -1.796155     -2.235069     -1.956326
27
Coordinates from ORCA-job opt E -876.481965993746
  C       3.605029     -0.463431     -1.270365
  C       2.913708     -0.179519      0.039690
  O       1.505547     -0.000330     -0.225411
  P       0.467584      0.315252      0.937736
  O       0.755742      1.417534      1.886490
  C       0.522155     -1.233794      1.904449
  N       0.528402     -2.186087      2.561595
  N      -0.960950      0.359589      0.148250
  C      -2.118005      0.934320      0.850617
  C      -2.472080      2.328681      0.356932
  C      -1.209544     -0.321941     -1.129218
  C      -1.509809     -1.807477     -0.986341
  H       3.470857      0.372377     -1.971974
  H       3.205620     -1.379565     -1.728830
  H       4.681290     -0.602408     -1.094862
  H       3.297534      0.735517      0.515240
  H       3.039339     -1.016833      0.746104
  H      -2.966869      0.242817      0.726544
  H      -1.900302      0.963901      1.928879
  H      -1.638310      3.022514      0.540783
  H      -3.360893      2.705629      0.884671
  H      -2.691889      2.329995     -0.721567
  H      -0.344952     -0.162011     -1.787394
  H      -2.057469      0.197805     -1.600344
  H      -2.345865     -1.980803     -0.291437
  H      -0.632177     -2.357859     -0.613407
  H      -1.783696     -2.233876     -1.962744
27
Coordinates from ORCA-job opt E -876.481978894787
  C       3.605991     -0.459991     -1.267786
  C       2.914756     -0.165264      0.040013
  O       1.504358     -0.003021     -0.224521
  P       0.465693      0.309845      0.938728
  O       0.750574      1.414239      1.886324
  C       0.526603     -1.240463      1.904342
  N       0.540671     -2.196187      2.556309
  N      -0.963903      0.348396      0.152630
  C      -2.119328      0.931225      0.850236
  C      -2.458523      2.330381      0.358531
  C      -1.211926     -0.327438     -1.127269
  C      -1.524165     -1.811504     -0.989365
  H       3.460052      0.363975     -1.980981
  H       3.215250     -1.386977     -1.711790
  H       4.684253     -0.584713     -1.094046
  H       3.290679      0.759858      0.502110
  H       3.050209     -0.991957      0.757026
  H      -2.973955      0.248022      0.720428
  H      -1.908033      0.955511      1.930017
  H      -1.620084      3.016400      0.550023
  H      -3.348186      2.714145      0.879796
  H      -2.670203      2.335184     -0.721632
  H      -0.343007     -0.174678     -1.781231
  H      -2.053624      0.197985     -1.603423
  H      -2.365628     -1.980756     -0.299979
  H      -0.652588     -2.368605     -0.612192
  H      -1.795935     -2.233611     -1.968213
27
Coordinates from ORCA-job opt E -876.481984974789
  C       3.609230     -0.455715     -1.265380
  C       2.917546     -0.152281      0.040234
  O       1.505564     -0.003677     -0.224031
  P       0.465705      0.306079      0.938940
  O       0.747594      1.410548      1.887392
  C       0.532337     -1.245250      1.902591
  N       0.553386     -2.204187      2.549598
  N      -0.964552      0.339888      0.154427
  C      -2.119158      0.927323      0.849138
  C      -2.449153      2.329645      0.359846
  C      -1.211759     -0.333297     -1.126626
  C      -1.543820     -1.813459     -0.990181
  H       3.454691      0.358841     -1.987572
  H       3.225626     -1.390890     -1.698387
  H       4.688853     -0.569241     -1.092457
  H       3.286874      0.780737      0.491608
  H       3.060791     -0.970086      0.765916
  H      -2.976946      0.249144      0.714168
  H      -1.912716      0.947057      1.930004
  H      -1.608148      3.010762      0.557443
  H      -3.339726      2.716749      0.877011
  H      -2.655034      2.337873     -0.721457
  H      -0.335954     -0.193061     -1.774058
  H      -2.042869      0.202053     -1.610514
  H      -2.393405     -1.971750     -0.308156
  H      -0.682567     -2.380636     -0.604490
  H      -1.812391     -2.233169     -1.970920
27
Coordinates from ORCA-job opt E -876.481996041646
  C       3.615832     -0.444261     -1.262422
  C       2.923395     -0.132206      0.040786
  O       1.509692      0.000125     -0.222765
  P       0.467129      0.301009      0.939939
  O       0.742048      1.403772      1.892304
  C       0.545739     -1.253016      1.897928
  N       0.580090     -2.218166      2.535041
  N      -0.963761      0.326326      0.156531
  C      -2.117914      0.920180      0.846159
  C      -2.435230      2.326396      0.359550
  C      -1.208628     -0.345488     -1.125204
  C      -1.583808     -1.815428     -0.987706
  H       3.451655      0.360152     -1.993875
  H       3.240828     -1.388084     -1.684113
  H       4.696875     -0.544824     -1.090383
  H       3.284552      0.809517      0.480471
  H       3.076118     -0.939885      0.775883
  H      -2.979409      0.248458      0.703044
  H      -1.919146      0.933856      1.928566
  H      -1.591206      3.001040      0.566291
  H      -3.327556      2.717686      0.870427
  H      -2.632135      2.339395     -0.723405
  H      -0.318052     -0.233699     -1.757664
  H      -2.015735      0.210495     -1.626595
  H      -2.451498     -1.946725     -0.322946
  H      -0.746601     -2.402915     -0.580297
  H      -1.843273     -2.233713     -1.971459
27
Coordinates from ORCA-job opt E -876.482010795957
  C       3.624073     -0.422178     -1.260895
  C       2.930421     -0.113521      0.042460
  O       1.516007      0.010783     -0.220493
  P       0.469170      0.294693      0.942463
  O       0.733022      1.392857      1.902974
  C       0.564388     -1.264840      1.889277
  N       0.615177     -2.238313      2.512518
  N      -0.962107      0.310468      0.159024
  C      -2.115694      0.913956      0.841187
  C      -2.418363      2.322895      0.353390
  C      -1.204778     -0.364077     -1.121512
  C      -1.634202     -1.818547     -0.978478
  H       3.455598      0.381553     -1.992172
  H       3.254047     -1.367703     -1.683115
  H       4.705680     -0.516790     -1.089016
  H       3.286407      0.830438      0.481519
  H       3.088382     -0.919646      0.778198
  H      -2.981164      0.249111      0.690578
  H      -1.925055      0.924271      1.925009
  H      -1.570896      2.990714      0.568104
  H      -3.312054      2.720374      0.857008
  H      -2.605853      2.338601     -0.731190
  H      -0.297400     -0.290111     -1.735041
  H      -1.980645      0.215719     -1.645195
  H      -2.524612     -1.912142     -0.337865
  H      -0.829834     -2.428975     -0.540055
  H      -1.879714     -2.239592     -1.964598
27
Coordinates from ORCA-job opt E -876.482033397639
  C       3.639167     -0.366684     -1.259855
  C       2.943159     -0.080688      0.047342
  O       1.528112      0.036180     -0.214122
  P       0.472211      0.277441      0.950157
  O       0.711244      1.363100      1.930672
  C       0.602426     -1.296567      1.867402
  N       0.685174     -2.286938      2.459959
  N      -0.959477      0.276927      0.165896
  C      -2.110593      0.905811      0.829816
  C      -2.379769      2.318111      0.332819
  C      -1.199879     -0.407845     -1.109715
  C      -1.734161     -1.825554     -0.953397
  H       3.465832      0.446302     -1.979700
  H       3.276154     -1.308450     -1.696116
  H       4.721333     -0.455639     -1.088396
  H       3.291626      0.860242      0.498772
  H       3.107584     -0.894491      0.773151
  H      -2.985282      0.256401      0.666946
  H      -1.935773      0.914927      1.916028
  H      -1.524127      2.971217      0.560086
  H      -3.274353      2.732700      0.820847
  H      -2.548942      2.334614     -0.754702
  H      -0.265300     -0.410333     -1.685261
  H      -1.911587      0.212713     -1.676692
  H      -2.664504     -1.840629     -0.365140
  H      -0.999830     -2.474057     -0.451662
  H      -1.950444     -2.258813     -1.941052
27
Coordinates from ORCA-job opt E -876.482041721263
  C       3.632697     -0.363049     -1.263075
  C       2.938376     -0.092709      0.048330
  O       1.524582      0.040247     -0.211790
  P       0.468712      0.275921      0.953738
  O       0.707874      1.357108      1.939217
  C       0.595702     -1.302627      1.863425
  N       0.672384     -2.293979      2.455159
  N      -0.962405      0.281841      0.168250
  C      -2.111884      0.915932      0.830492
  C      -2.380744      2.325029      0.324547
  C      -1.203527     -0.405062     -1.106505
  C      -1.710964     -1.832008     -0.947557
  H       3.467034      0.463099     -1.969547
  H       3.261996     -1.294555     -1.714587
  H       4.713929     -0.464074     -1.092289
  H       3.294472      0.837699      0.515425
  H       3.095112     -0.919796      0.760652
  H      -2.987576      0.266267      0.674066
  H      -1.933456      0.932776      1.915918
  H      -1.523624      2.978785      0.544378
  H      -3.272859      2.743805      0.813613
  H      -2.554076      2.334977     -0.762387
  H      -0.275085     -0.388932     -1.692137
  H      -1.932253      0.203949     -1.664069
  H      -2.635135     -1.864736     -0.350431
  H      -0.960506     -2.468772     -0.454649
  H      -1.928776     -2.267136     -1.934101
27
Coordinates from ORCA-job opt E -876.482074370191
  C       3.636222     -0.319121     -1.265202
  C       2.941152     -0.084867      0.052715
  O       1.528272      0.060025     -0.205322
  P       0.466961      0.259597      0.962347
  O       0.690659      1.326787      1.966586
  C       0.610618     -1.335888      1.839504
  N       0.696639     -2.338713      2.410290
  N      -0.963575      0.266756      0.175497
  C      -2.109200      0.923625      0.823443
  C      -2.355008      2.330353      0.299518
  C      -1.206164     -0.431514     -1.093237
  C      -1.749567     -1.843365     -0.921358
  H       3.473479      0.527104     -1.948044
  H       3.263942     -1.236918     -1.742620
  H       4.717020     -0.427425     -1.096001
  H       3.299136      0.830580      0.547238
  H       3.093918     -0.932747      0.740947
  H      -2.992488      0.284422      0.667639
  H      -1.936262      0.950388      1.909272
  H      -1.491005      2.975369      0.518203
  H      -3.244323      2.766259      0.778812
  H      -2.521265      2.331309     -0.788504
  H      -0.269301     -0.444268     -1.665724
  H      -1.912180      0.187210     -1.669081
  H      -2.686705     -1.846650     -0.344099
  H      -1.024502     -2.489260     -0.403099
  H      -1.956472     -2.289051     -1.905633
27
Coordinates from ORCA-job opt E -876.482117649594
  C       3.648318     -0.224795     -1.266594
  C       2.949710     -0.070623      0.061420
  O       1.538973      0.098613     -0.192369
  P       0.467128      0.225769      0.976653
  O       0.661308      1.261780      2.019487
  C       0.641358     -1.403579      1.783891
  N       0.740974     -2.427658      2.313124
  N      -0.961933      0.239372      0.188171
  C      -2.099738      0.936879      0.808166
  C      -2.306422      2.335718      0.246648
  C      -1.209836     -0.486462     -1.064397
  C      -1.837828     -1.858895     -0.864216
  H       3.490241      0.662400     -1.896204
  H       3.274277     -1.110883     -1.799288
  H       4.728266     -0.347231     -1.101561
  H       3.310204      0.809839      0.614338
  H       3.094720     -0.961577      0.694531
  H      -2.996302      0.315661      0.657398
  H      -1.935456      0.986830      1.894058
  H      -1.431337      2.967194      0.460711
  H      -3.190757      2.802999      0.705451
  H      -2.460239      2.314453     -0.842921
  H      -0.257672     -0.570176     -1.604685
  H      -1.860253      0.149969     -1.685061
  H      -2.797175     -1.793111     -0.329003
  H      -1.171923     -2.523427     -0.293208
  H      -2.028607     -2.329060     -1.840453
27
Coordinates from ORCA-job opt E -876.482130424812
  C       3.657183     -0.165664     -1.265598
  C       2.954237     -0.063396      0.065366
  O       1.544748      0.118491     -0.185726
  P       0.468320      0.204844      0.983368
  O       0.649057      1.219641      2.049592
  C       0.658437     -1.443343      1.747287
  N       0.763789     -2.479206      2.251718
  N      -0.960818      0.222813      0.196049
  C      -2.092095      0.944746      0.798780
  C      -2.277905      2.337331      0.214214
  C      -1.212113     -0.520655     -1.045219
  C      -1.892563     -1.865475     -0.828723
  H       3.501976      0.746220     -1.859644
  H       3.283748     -1.029314     -1.834438
  H       4.736477     -0.296129     -1.102537
  H       3.314308      0.793644      0.654237
  H       3.095978     -0.979479      0.662309
  H      -2.996271      0.333614      0.652926
  H      -1.932319      1.009758      1.884333
  H      -1.396564      2.961658      0.423895
  H      -3.158991      2.822600      0.660430
  H      -2.425685      2.300796     -0.875790
  H      -0.253019     -0.651303     -1.563866
  H      -1.826573      0.123163     -1.694609
  H      -2.863367     -1.754502     -0.322432
  H      -1.266175     -2.538035     -0.223555
  H      -2.073799     -2.352819     -1.798281
27
Coordinates from ORCA-job opt E -876.482144905178
  C       3.662375     -0.182877     -1.264006
  C       2.952198     -0.074666      0.062735
  O       1.543429      0.104202     -0.195483
  P       0.469883      0.211804      0.974821
  O       0.664349      1.233173      2.032564
  C       0.642556     -1.432097      1.752055
  N       0.731448     -2.462012      2.271418
  N      -0.960418      0.235796      0.190511
  C      -2.092708      0.946266      0.802530
  C      -2.295645      2.339114      0.223780
  C      -1.213421     -0.505506     -1.051140
  C      -1.866740     -1.864223     -0.834803
  H       3.509284      0.726224     -1.863028
  H       3.292629     -1.049062     -1.831582
  H       4.740912     -0.312030     -1.095195
  H       3.308664      0.785598      0.649062
  H       3.092687     -0.987901      0.664480
  H      -2.993098      0.327976      0.662583
  H      -1.926611      1.010024      1.887438
  H      -1.418171      2.970693      0.428172
  H      -3.177779      2.815576      0.677162
  H      -2.451301      2.303132     -0.865211
  H      -0.259673     -0.618101     -1.584068
  H      -1.848687      0.129251     -1.689238
  H      -2.827677     -1.773419     -0.305890
  H      -1.216260     -2.532510     -0.250534
  H      -2.062225     -2.344425     -1.805048
27
Coordinates from ORCA-job opt E -876.482153773174
  C       3.664358     -0.173238     -1.262631
  C       2.950643     -0.072174      0.062646
  O       1.541334      0.099360     -0.197699
  P       0.469336      0.207094      0.974096
  O       0.667334      1.226853      2.032456
  C       0.643594     -1.436564      1.750388
  N       0.733990     -2.466981      2.268575
  N      -0.963287      0.228898      0.193269
  C      -2.091289      0.947684      0.802350
  C      -2.286418      2.340098      0.220335
  C      -1.217267     -0.511619     -1.048531
  C      -1.875611     -1.868257     -0.832954
  H       3.508727      0.737264     -1.859029
  H       3.300478     -1.038750     -1.835003
  H       4.743047     -0.297799     -1.091350
  H       3.301379      0.788643      0.651608
  H       3.095316     -0.985919      0.662801
  H      -2.994840      0.333821      0.662876
  H      -1.926470      1.012557      1.887425
  H      -1.405642      2.967298      0.424217
  H      -3.166738      2.822139      0.671240
  H      -2.440869      2.302210     -0.868828
  H      -0.264043     -0.628629     -1.581391
  H      -1.850167      0.125477     -1.686632
  H      -2.837225     -1.772845     -0.306001
  H      -1.228886     -2.538474     -0.246773
  H      -2.070785     -2.348149     -1.803376
27
Coordinates from ORCA-job opt E -876.482167179183
  C       3.673192     -0.140594     -1.259864
  C       2.950141     -0.074088      0.062328
  O       1.540904      0.092315     -0.202540
  P       0.470388      0.195019      0.971504
  O       0.672960      1.209675      2.033535
  C       0.644623     -1.452286      1.739296
  N       0.731772     -2.484207      2.255091
  N      -0.965489      0.218149      0.195992
  C      -2.085981      0.952305      0.799487
  C      -2.269845      2.341447      0.206246
  C      -1.224071     -0.528025     -1.041285
  C      -1.900822     -1.874690     -0.818232
  H       3.515984      0.782458     -1.836297
  H       3.319904     -0.994588     -1.855669
  H       4.751450     -0.261935     -1.083541
  H       3.290953      0.776205      0.672073
  H       3.098126     -0.999541      0.643523
  H      -2.995017      0.345132      0.665903
  H      -1.920020      1.024354      1.883934
  H      -1.383603      2.962818      0.404384
  H      -3.146022      2.834263      0.653470
  H      -2.425227      2.295749     -0.882507
  H      -0.270973     -0.662439     -1.570116
  H      -1.846461      0.112324     -1.686480
  H      -2.863823     -1.762042     -0.297208
  H      -1.266050     -2.548227     -0.222997
  H      -2.096993     -2.359551     -1.785946
27
Coordinates from ORCA-job opt E -876.482183284312
  C       3.687211     -0.079862     -1.254692
  C       2.948671     -0.087530      0.060258
  O       1.540264      0.079410     -0.210498
  P       0.472223      0.175153      0.967051
  O       0.682023      1.182969      2.033727
  C       0.644633     -1.477407      1.723599
  N       0.723964     -2.510380      2.238614
  N      -0.968197      0.202477      0.199359
  C      -2.076098      0.961881      0.793870
  C      -2.243881      2.343355      0.178404
  C      -1.236072     -0.554848     -1.029098
  C      -1.939212     -1.885527     -0.790234
  H       3.530682      0.871228     -1.783813
  H       3.349147     -0.903354     -1.900168
  H       4.764105     -0.202662     -1.070931
  H       3.275696      0.733527      0.715975
  H       3.098419     -1.039964      0.595606
  H      -2.993846      0.364890      0.674240
  H      -1.904599      1.049518      1.876241
  H      -1.348636      2.956018      0.362856
  H      -3.111914      2.854554      0.620785
  H      -2.404169      2.281996     -0.908867
  H      -0.284250     -0.714897     -1.552987
  H      -1.844170      0.088295     -1.685114
  H      -2.903128     -1.746667     -0.277372
  H      -1.320981     -2.561392     -0.180585
  H      -2.137884     -2.380781     -1.752141
27
Coordinates from ORCA-job opt E -876.482194864890
  C       3.699078     -0.018210     -1.248260
  C       2.946674     -0.114170      0.055035
  O       1.540171      0.068419     -0.217523
  P       0.474720      0.160487      0.963037
  O       0.690009      1.165102      2.031372
  C       0.645463     -1.494689      1.714849
  N       0.717151     -2.526542      2.233275
  N      -0.969067      0.191112      0.201537
  C      -2.066362      0.971846      0.787992
  C      -2.224944      2.343285      0.148052
  C      -1.246270     -0.577979     -1.017711
  C      -1.970055     -1.894400     -0.761616
  H       3.551712      0.967642     -1.712330
  H       3.367535     -0.794184     -1.953176
  H       4.773471     -0.156780     -1.060772
  H       3.267061      0.661587      0.766919
  H       3.091007     -1.100061      0.527431
  H      -2.990638      0.381666      0.685965
  H      -1.885980      1.078113      1.867138
  H      -1.322607      2.950449      0.315332
  H      -3.085197      2.870457      0.586870
  H      -2.393109      2.264084     -0.936847
  H      -0.296283     -0.758535     -1.538270
  H      -1.843902      0.065499     -1.682981
  H      -2.933955     -1.733510     -0.255391
  H      -1.364315     -2.569517     -0.138880
  H      -2.171367     -2.401170     -1.716965
27
Coordinates from ORCA-job opt E -876.482215231043
  C       3.693606     -0.038820     -1.252972
  C       2.946606     -0.123726      0.054273
  O       1.540165      0.065585     -0.214254
  P       0.474712      0.172351      0.964503
  O       0.688440      1.188269      2.022595
  C       0.642740     -1.474326      1.736695
  N       0.716014     -2.500997      2.265108
  N      -0.966445      0.198970      0.198497
  C      -2.070608      0.966825      0.790663
  C      -2.240185      2.340769      0.158915
  C      -1.239854     -0.564643     -1.025260
  C      -1.950019     -1.889180     -0.775065
  H       3.551751      0.945840     -1.721134
  H       3.351885     -0.816079     -1.951534
  H       4.767765     -0.185080     -1.069967
  H       3.274915      0.653477      0.761024
  H       3.086003     -1.108222      0.530774
  H      -2.990038      0.369683      0.685927
  H      -1.889701      1.068392      1.870168
  H      -1.342346      2.953648      0.329135
  H      -3.103911      2.858910      0.601735
  H      -2.408682      2.267162     -0.926283
  H      -0.289099     -0.730759     -1.549161
  H      -1.845454      0.077818     -1.684236
  H      -2.913488     -1.741567     -0.264131
  H      -1.334889     -2.562160     -0.159150
  H      -2.149885     -2.392142     -1.732779
27
Coordinates from ORCA-job opt E -876.482227820485
  C       3.690497     -0.046918     -1.256608
  C       2.944321     -0.156163      0.049604
  O       1.540005      0.056056     -0.213006
  P       0.475870      0.187882      0.963704
  O       0.691087      1.220915      2.005391
  C       0.636170     -1.445439      1.766777
  N       0.706684     -2.462643      2.313527
  N      -0.962338      0.211104      0.193324
  C      -2.073684      0.964863      0.791546
  C      -2.260189      2.338540      0.163812
  C      -1.234221     -0.550787     -1.032057
  C      -1.923710     -1.885904     -0.782630
  H       3.565129      0.952494     -1.697263
  H       3.332496     -0.799191     -1.974170
  H       4.762228     -0.217532     -1.080677
  H       3.283672      0.598251      0.775726
  H       3.070534     -1.154557      0.499729
  H      -2.986980      0.358049      0.689392
  H      -1.889085      1.066538      1.870392
  H      -1.368021      2.960202      0.331703
  H      -3.127007      2.846894      0.611934
  H      -2.432909      2.266352     -0.920790
  H      -0.284188     -0.699457     -1.562446
  H      -1.853211      0.086137     -1.683875
  H      -2.884143     -1.755115     -0.261605
  H      -1.292831     -2.553503     -0.176590
  H      -2.126176     -2.387070     -1.740761
27
Coordinates from ORCA-job opt E -876.482232656065
  C       3.687196     -0.068710     -1.259619
  C       2.944711     -0.153713      0.050703
  O       1.539428      0.049807     -0.212601
  P       0.475217      0.195030      0.962317
  O       0.692186      1.235674      1.996336
  C       0.630917     -1.431685      1.778896
  N       0.702641     -2.446019      2.330781
  N      -0.961717      0.216629      0.189694
  C      -2.077353      0.960193      0.792638
  C      -2.268110      2.339225      0.178174
  C      -1.231453     -0.541052     -1.038576
  C      -1.908887     -1.883306     -0.794875
  H       3.556593      0.920951     -1.720328
  H       3.328917     -0.836714     -1.960281
  H       4.760025     -0.232275     -1.084001
  H       3.283553      0.615954      0.760850
  H       3.075127     -1.142663      0.520071
  H      -2.987754      0.350629      0.681625
  H      -1.897044      1.051809      1.873210
  H      -1.379056      2.963040      0.354402
  H      -3.137999      2.839746      0.629136
  H      -2.438059      2.276758     -0.907480
  H      -0.281650     -0.679970     -1.571971
  H      -1.857244      0.094304     -1.685368
  H      -2.867014     -1.763829     -0.266777
  H      -1.269094     -2.550577     -0.197750
  H      -2.114078     -2.379237     -1.755119
27
Coordinates from ORCA-job opt E -876.482237098806
  C       3.688461     -0.058135     -1.258682
  C       2.944112     -0.157382      0.049559
  O       1.538745      0.044925     -0.213802
  P       0.475163      0.192333      0.961432
  O       0.693617      1.233911      1.994169
  C       0.630374     -1.433230      1.779728
  N       0.702882     -2.447407      2.331806
  N      -0.962449      0.213656      0.189865
  C      -2.076189      0.961438      0.790814
  C      -2.262145      2.340381      0.174817
  C      -1.233572     -0.546054     -1.036773
  C      -1.914642     -1.886099     -0.790734
  H       3.556439      0.935742     -1.709856
  H       3.332932     -0.819736     -1.967680
  H       4.761348     -0.221239     -1.083031
  H       3.279973      0.606442      0.767406
  H       3.076354     -1.150385      0.509783
  H      -2.988244      0.354491      0.678884
  H      -1.897478      1.053333      1.871664
  H      -1.371514      2.961806      0.351545
  H      -3.131127      2.843863      0.624242
  H      -2.430973      2.277235     -0.910982
  H      -0.284014     -0.689262     -1.569493
  H      -1.857363      0.089604     -1.685180
  H      -2.872867     -1.762867     -0.263595
  H      -1.277264     -2.553926     -0.191731
  H      -2.120559     -2.383438     -1.750089
27
Coordinates from ORCA-job opt E -876.482239932447
  C       3.688806     -0.049489     -1.258145
  C       2.943370     -0.162495      0.048365
  O       1.537945      0.039015     -0.214485
  P       0.474920      0.190785      0.960586
  O       0.694898      1.234301      1.991030
  C       0.628414     -1.432908      1.782137
  N       0.702030     -2.446857      2.334481
  N      -0.962900      0.212385      0.189260
  C      -2.075556      0.962728      0.788722
  C      -2.257377      2.342192      0.172739
  C      -1.235085     -0.549723     -1.035570
  C      -1.917143     -1.888898     -0.787046
  H       3.554994      0.948338     -1.700019
  H       3.335392     -0.804856     -1.974832
  H       4.761854     -0.212200     -1.083189
  H       3.276870      0.595361      0.773632
  H       3.077244     -1.159497      0.499377
  H      -2.988745      0.357929      0.674389
  H      -1.899339      1.053661      1.870094
  H      -1.365778      2.961723      0.351221
  H      -3.126062      2.847499      0.620710
  H      -2.424366      2.279316     -0.913370
  H      -0.286111     -0.695435     -1.568608
  H      -1.858736      0.085179     -1.684850
  H      -2.875124     -1.763967     -0.259770
  H      -1.280444     -2.556586     -0.187220
  H      -2.123971     -2.387499     -1.745552
27
Coordinates from ORCA-job opt E -876.482237550994
  C       3.688722     -0.048885     -1.258095
  C       2.943354     -0.162775      0.048370
  O       1.537847      0.038103     -0.214432
  P       0.474777      0.190472      0.960474
  O       0.694968      1.234009      1.990815
  C       0.627652     -1.433263      1.782003
  N       0.701721     -2.447579      2.333613
  N      -0.962922      0.212713      0.188858
  C      -2.075575      0.963034      0.788328
  C      -2.256860      2.342767      0.172749
  C      -1.235235     -0.550023     -1.035540
  C      -1.916987     -1.889251     -0.786338
  H       3.554052      0.948926     -1.699743
  H       3.335956     -0.804371     -1.974973
  H       4.761904     -0.210761     -1.083180
  H       3.276484      0.594950      0.773942
  H       3.077680     -1.159884      0.499003
  H      -2.988870      0.358527      0.673298
  H      -1.899833      1.053457      1.869821
  H      -1.365220      2.962071      0.351798
  H      -3.125639      2.848104      0.620507
  H      -2.423340      2.280133     -0.913451
  H      -0.286483     -0.695751     -1.568942
  H      -1.859307      0.084480     -1.684815
  H      -2.874920     -1.764346     -0.258966
  H      -1.280135     -2.556654     -0.186351
  H      -2.123792     -2.388206     -1.744668
