27
Coordinates from ORCA-job opt E -876.483269415881
  C           3.56030853593837     -1.09010679023387     -1.07073924554392
  C           2.91073078270382     -0.33821871183984      0.06436854442090
  O           1.51121365420204     -0.17164567017095     -0.24730258974661
  P           0.54297235266015      0.71099558822319      0.65917842325809
  O           0.91617799932751      2.11844316643131      0.93674779268472
  C           0.60488157988762     -0.21805157401317      2.23114138929926
  N           0.61440300176856     -0.77587082745081      3.24459519422562
  N          -0.93325734496628      0.44670671232968      0.01789404107411
  C          -1.94325607100023      1.51156407295741      0.04217390712659
  C          -2.84439003428470      1.46889717708052      1.26845900631952
  C          -1.34004248030729     -0.88338609295777     -0.45017620884996
  C          -1.23568718662126     -1.03877792604122     -1.96018140332017
  H           3.47125803688483     -0.52911384716962     -2.01217192238714
  H           3.09366278154824     -2.07732337208446     -1.20047047978525
  H           4.62767410179734     -1.23633359108118     -0.85194980328161
  H           2.99773147292177     -0.89360113696402      1.01283398225154
  H           3.36036483146333      0.65711698577309      0.20142766620598
  H          -1.42237770815154      2.47740103214208     -0.01585265805523
  H          -2.53490813096876      1.42088379179983     -0.88235812643485
  H          -2.26181319530210      1.63651805324940      2.18762343265406
  H          -3.61295155173556      2.25321941597109      1.20178376710817
  H          -3.35788553114784      0.49937519342596      1.35846126994729
  H          -0.72323907035074     -1.64497283466408      0.05232567146749
  H          -2.37250034856010     -1.05833696581768     -0.10851929472021
  H          -1.57980741443806     -2.03814107302616     -2.26545544215831
  H          -0.19362514693123     -0.91375522892796     -2.28836252273103
  H          -1.85563790633787     -0.29348552694076     -2.48138904102904
