27
Coordinates from ORCA-job opt E -876.469132155663
  C       3.696202     -0.801448     -1.140682
  C       2.871418     -0.010196     -0.146841
  O       1.505620     -0.107042     -0.514945
  P       0.409976      0.499269      0.508212
  O       0.898827      1.736597      1.206571
  C       0.302488     -0.755982      1.851975
  N       0.215333     -1.576397      2.674225
  N      -1.022779      0.591330     -0.303641
  C      -1.920770      1.690172      0.069732
  C      -2.591554      1.515480      1.426716
  C      -1.773720     -0.622971     -0.632945
  C      -0.980482     -1.600385     -1.490554
  H       3.548691     -0.418635     -2.155970
  H       3.386391     -1.851748     -1.148533
  H       4.760394     -0.748906     -0.894585
  H       3.015659     -0.409078      0.861950
  H       3.173838      1.041499     -0.160610
  H      -1.352343      2.627857      0.073364
  H      -2.689313      1.827343     -0.701065
  H      -1.855024      1.429121      2.231258
  H      -3.219501      2.385609      1.645000
  H      -3.234387      0.630273      1.449794
  H      -2.108169     -1.131488      0.278047
  H      -2.674424     -0.363420     -1.203253
  H      -1.630131     -2.418035     -1.820454
  H      -0.152066     -2.048291     -0.934393
  H      -0.580173     -1.110530     -2.384288
27
Coordinates from ORCA-job opt E -876.475604649095
  C       3.633917     -0.825119     -1.185435
  C       2.869018     -0.041940     -0.141515
  O       1.478618     -0.063205     -0.492441
  P       0.413877      0.546711      0.546680
  O       0.861921      1.799246      1.228018
  C       0.334141     -0.739866      1.847031
  N       0.258454     -1.571736      2.647236
  N      -1.026148      0.583092     -0.246320
  C      -1.924388      1.701902      0.095468
  C      -2.655758      1.559638      1.427446
  C      -1.722452     -0.665021     -0.615083
  C      -0.900242     -1.605815     -1.491453
  H       3.488986     -0.385414     -2.183593
  H       3.281810     -1.866866     -1.225951
  H       4.707365     -0.824401     -0.952643
  H       3.013215     -0.491286      0.855231
  H       3.214607      1.001616     -0.107536
  H      -1.340093      2.634028      0.095907
  H      -2.654522      1.809606     -0.719896
  H      -1.947915      1.495389      2.268211
  H      -3.295025      2.438263      1.597475
  H      -3.301080      0.668587      1.448436
  H      -2.062857     -1.204565      0.286971
  H      -2.626176     -0.388304     -1.175440
  H      -1.536219     -2.431253     -1.842126
  H      -0.055908     -2.052475     -0.946649
  H      -0.507146     -1.080811     -2.373944
27
Coordinates from ORCA-job opt E -876.478122147270
  C       3.583851     -0.827506     -1.228569
  C       2.873030     -0.081044     -0.125688
  O       1.471315     -0.002735     -0.468721
  P       0.430596      0.601644      0.581115
  O       0.823334      1.868487      1.249112
  C       0.382980     -0.725026      1.828651
  N       0.319356     -1.575565      2.607983
  N      -1.017230      0.575171     -0.191714
  C      -1.917611      1.705757      0.101697
  C      -2.709325      1.579942      1.397216
  C      -1.675987     -0.691547     -0.573008
  C      -0.861494     -1.609666     -1.474741
  H       3.464490     -0.306491     -2.190853
  H       3.183347     -1.847538     -1.331928
  H       4.657184     -0.894460     -0.998176
  H       2.989960     -0.603248      0.840605
  H       3.263325      0.941862     -0.012162
  H      -1.319460      2.627710      0.107609
  H      -2.601008      1.780752     -0.759086
  H      -2.038250      1.542438      2.271005
  H      -3.367332      2.454061      1.517735
  H      -3.341256      0.677533      1.407335
  H      -2.006787     -1.243267      0.328250
  H      -2.591136     -0.389981     -1.103853
  H      -1.507298     -2.428766     -1.824881
  H      -0.004276     -2.063656     -0.957624
  H      -0.484318     -1.064856     -2.353226
27
Coordinates from ORCA-job opt E -876.478528146117
  C       3.559961     -0.840917     -1.253256
  C       2.873167     -0.118561     -0.120729
  O       1.474139      0.021009     -0.459702
  P       0.444554      0.630152      0.594215
  O       0.820675      1.909766      1.241204
  C       0.417719     -0.696292      1.843494
  N       0.363414     -1.542581      2.629697
  N      -1.013398      0.574815     -0.159456
  C      -1.925096      1.705093      0.101972
  C      -2.748565      1.577399      1.375738
  C      -1.652602     -0.697910     -0.545018
  C      -0.835293     -1.585791     -1.470037
  H       3.460275     -0.277100     -2.192339
  H       3.129965     -1.843219     -1.395119
  H       4.629945     -0.949605     -1.024400
  H       2.965330     -0.682691      0.823280
  H       3.292228      0.886222      0.038479
  H      -1.327359      2.626166      0.120854
  H      -2.583345      1.771537     -0.779012
  H      -2.099552      1.550832      2.265705
  H      -3.419613      2.443788      1.474483
  H      -3.368625      0.667773      1.373102
  H      -1.959022     -1.264781      0.354267
  H      -2.581730     -0.402499     -1.055050
  H      -1.472197     -2.413179     -1.815529
  H       0.041119     -2.025815     -0.974164
  H      -0.486094     -1.023612     -2.348593
27
Coordinates from ORCA-job opt E -876.478763857227
  C       3.555212     -0.834766     -1.273700
  C       2.880532     -0.149614     -0.111745
  O       1.487267      0.039322     -0.447140
  P       0.459292      0.644008      0.609028
  O       0.818288      1.934691      1.241248
  C       0.450459     -0.679491      1.866141
  N       0.403663     -1.518026      2.661977
  N      -1.007354      0.566941     -0.127159
  C      -1.923116      1.701794      0.093744
  C      -2.779376      1.579991      1.345388
  C      -1.640749     -0.708137     -0.510133
  C      -0.841423     -1.572707     -1.471412
  H       3.473275     -0.226869     -2.185928
  H       3.104501     -1.819973     -1.460200
  H       4.621243     -0.977594     -1.046382
  H       2.949305     -0.758794      0.804966
  H       3.320753      0.836729      0.096875
  H      -1.321184      2.619440      0.127239
  H      -2.554705      1.766936     -0.806384
  H      -2.152752      1.558380      2.250842
  H      -3.455980      2.443913      1.422387
  H      -3.395407      0.668380      1.330120
  H      -1.912367     -1.289622      0.390070
  H      -2.589039     -0.420777     -0.988167
  H      -1.477832     -2.405452     -1.804557
  H       0.056994     -2.002751     -1.008915
  H      -0.529499     -0.995952     -2.354115
27
Coordinates from ORCA-job opt E -876.478880859244
  C       3.551591     -0.838507     -1.282268
  C       2.885305     -0.168949     -0.106485
  O       1.493556      0.036320     -0.433203
  P       0.467497      0.647695      0.620457
  O       0.822495      1.948596      1.234771
  C       0.466493     -0.661100      1.896139
  N       0.421511     -1.484930      2.707378
  N      -1.004371      0.557956     -0.101799
  C      -1.920971      1.696224      0.089785
  C      -2.800388      1.580869      1.326127
  C      -1.630383     -0.719214     -0.485916
  C      -0.846792     -1.552126     -1.488300
  H       3.471830     -0.214338     -2.183582
  H       3.092979     -1.816966     -1.484038
  H       4.617106     -0.993672     -1.061026
  H       2.949836     -0.795707      0.798433
  H       3.334323      0.809961      0.118109
  H      -1.316770      2.611968      0.134501
  H      -2.534114      1.763124     -0.822632
  H      -2.188645      1.559921      2.241459
  H      -3.477839      2.445225      1.389206
  H      -3.416974      0.669821      1.302184
  H      -1.861690     -1.321212      0.411773
  H      -2.598695     -0.444818     -0.929378
  H      -1.475152     -2.394118     -1.813259
  H       0.076575     -1.967016     -1.062447
  H      -0.578313     -0.955008     -2.371904
27
Coordinates from ORCA-job opt E -876.479037263432
  C       3.555874     -0.839118     -1.282772
  C       2.895076     -0.186938     -0.093939
  O       1.502584      0.021000     -0.409147
  P       0.477378      0.644137      0.637340
  O       0.829862      1.957891      1.227720
  C       0.485291     -0.640299      1.939736
  N       0.441430     -1.441037      2.773605
  N      -0.999183      0.537924     -0.067829
  C      -1.912006      1.683487      0.081734
  C      -2.820566      1.587256      1.299217
  C      -1.616493     -0.743088     -0.451032
  C      -0.877720     -1.523800     -1.528896
  H       3.470668     -0.202539     -2.175065
  H       3.096768     -1.815049     -1.496173
  H       4.622725     -0.997055     -1.069854
  H       2.964319     -0.827558      0.801046
  H       3.346278      0.788718      0.141175
  H      -1.303611      2.596213      0.134484
  H      -2.502063      1.748352     -0.845833
  H      -2.227001      1.571351      2.226512
  H      -3.495652      2.454938      1.339462
  H      -3.440975      0.678579      1.271128
  H      -1.773552     -1.378289      0.439833
  H      -2.618596     -0.487999     -0.824264
  H      -1.499279     -2.375985     -1.840642
  H       0.083630     -1.919101     -1.174848
  H      -0.685186     -0.891992     -2.408612
27
Coordinates from ORCA-job opt E -876.479422039553
  C       3.564964     -0.856079     -1.266893
  C       2.912840     -0.216814     -0.065615
  O       1.516647     -0.022190     -0.360021
  P       0.494370      0.636147      0.665650
  O       0.848647      1.975616      1.200218
  C       0.518093     -0.586976      2.027922
  N       0.475651     -1.333490      2.910232
  N      -0.988844      0.497379     -0.007624
  C      -1.897000      1.650347      0.066800
  C      -2.849624      1.590876      1.254022
  C      -1.578888     -0.793787     -0.394958
  C      -0.954285     -1.445889     -1.623834
  H       3.461694     -0.215717     -2.155028
  H       3.111519     -1.834868     -1.481389
  H       4.635974     -1.006372     -1.069343
  H       3.000406     -0.863454      0.823840
  H       3.361619      0.761034      0.166728
  H      -1.286922      2.561946      0.125317
  H      -2.451023      1.702610     -0.883524
  H      -2.283669      1.593054      2.198582
  H      -3.522817      2.461180      1.251746
  H      -3.472901      0.683358      1.227906
  H      -1.567244     -1.496167      0.458451
  H      -2.638395     -0.595821     -0.607041
  H      -1.549664     -2.323969     -1.915209
  H       0.074154     -1.779487     -1.432557
  H      -0.935302     -0.742466     -2.470292
27
Coordinates from ORCA-job opt E -876.479983537411
  C       3.566848     -0.873930     -1.252056
  C       2.921258     -0.238480     -0.045016
  O       1.523310     -0.047963     -0.328378
  P       0.504959      0.635572      0.683373
  O       0.858712      1.990588      1.179905
  C       0.539391     -0.547626      2.081056
  N       0.498735     -1.259123      2.991784
  N      -0.981210      0.473060      0.028759
  C      -1.891119      1.625159      0.055583
  C      -2.864303      1.589437      1.227596
  C      -1.544294     -0.826035     -0.367421
  C      -1.006267     -1.384080     -1.681964
  H       3.455531     -0.232371     -2.138492
  H       3.114255     -1.853493     -1.465570
  H       4.639598     -1.022219     -1.062399
  H       3.016870     -0.886985      0.842344
  H       3.370412      0.739954      0.184793
  H      -1.283869      2.539017      0.109151
  H      -2.427081      1.659820     -0.905977
  H      -2.311685      1.611228      2.179809
  H      -3.539525      2.457666      1.197078
  H      -3.485360      0.680024      1.210764
  H      -1.415865     -1.564671      0.444451
  H      -2.628294     -0.680652     -0.469075
  H      -1.572286     -2.285018     -1.962257
  H       0.054798     -1.655462     -1.604190
  H      -1.113516     -0.643416     -2.489565
27
Coordinates from ORCA-job opt E -876.480880398648
  C       3.574871     -0.909161     -1.224891
  C       2.939118     -0.271906     -0.013292
  O       1.540330     -0.082104     -0.283896
  P       0.526076      0.641275      0.702349
  O       0.876212      2.020036      1.135376
  C       0.575365     -0.472976      2.157061
  N       0.536634     -1.125764      3.110622
  N      -0.964509      0.442189      0.077386
  C      -1.881526      1.585740      0.041018
  C      -2.887818      1.568630      1.186025
  C      -1.485439     -0.866504     -0.337312
  C      -1.103164     -1.281498     -1.756950
  H       3.456715     -0.268765     -2.111462
  H       3.119563     -1.888615     -1.433973
  H       4.648991     -1.058740     -1.043986
  H       3.041029     -0.920495      0.873434
  H       3.392703      0.706169      0.210308
  H      -1.284081      2.506147      0.095916
  H      -2.388083      1.599228     -0.936929
  H      -2.358392      1.615080      2.150369
  H      -3.570936      2.428657      1.118977
  H      -3.499758      0.652652      1.173403
  H      -1.184646     -1.644800      0.386661
  H      -2.580693     -0.814760     -0.274624
  H      -1.622344     -2.211994     -2.032001
  H      -0.021670     -1.447508     -1.848794
  H      -1.394547     -0.500215     -2.476711
27
Coordinates from ORCA-job opt E -876.482059380143
  C       3.562602     -0.979444     -1.178647
  C       2.933932     -0.285143      0.004741
  O       1.532035     -0.107488     -0.267093
  P       0.532975      0.661713      0.700945
  O       0.887611      2.052448      1.084935
  C       0.594579     -0.398924      2.191496
  N       0.565317     -1.014330      3.170002
  N      -0.957426      0.431540      0.086306
  C      -1.902048      1.553448      0.042517
  C      -2.890940      1.541659      1.201996
  C      -1.424821     -0.884071     -0.360352
  C      -1.136225     -1.183994     -1.828375
  H       3.439797     -0.381145     -2.093342
  H       3.105660     -1.967246     -1.338615
  H       4.637553     -1.120577     -0.995936
  H       3.041989     -0.889721      0.921209
  H       3.387446      0.702591      0.179958
  H      -1.324256      2.487591      0.062510
  H      -2.424188      1.527754     -0.927455
  H      -2.351054      1.624851      2.158060
  H      -3.591926      2.385887      1.122346
  H      -3.484447      0.614154      1.221667
  H      -1.004943     -1.671052      0.289760
  H      -2.511591     -0.920222     -0.193830
  H      -1.598002     -2.140203     -2.116899
  H      -0.057029     -1.244668     -2.025363
  H      -1.562601     -0.395408     -2.468457
27
Coordinates from ORCA-job opt E -876.482736849834
  C       3.520289     -1.101774     -1.094783
  C       2.897232     -0.279042      0.005280
  O       1.488786     -0.130833     -0.283162
  P       0.531141      0.705993      0.676969
  O       0.907047      2.097017      1.018182
  C       0.611204     -0.308798      2.189152
  N       0.610769     -0.909410      3.178089
  N      -0.955340      0.448827      0.050461
  C      -1.955563      1.526947      0.066110
  C      -2.872716      1.493506      1.279032
  C      -1.357119     -0.873256     -0.436122
  C      -1.106799     -1.072052     -1.920990
  H       3.396164     -0.607030     -2.068596
  H       3.061154     -2.099691     -1.142269
  H       4.595246     -1.221629     -0.898550
  H       3.012157     -0.771616      0.985113
  H       3.344795      0.723987      0.070047
  H      -1.422476      2.485905      0.012406
  H      -2.535017      1.433952     -0.866609
  H      -2.297501      1.634040      2.207440
  H      -3.614005      2.303405      1.211105
  H      -3.419475      0.541291      1.353433
  H      -0.844140     -1.645690      0.160146
  H      -2.428390     -0.992593     -0.200012
  H      -1.496111     -2.051675     -2.235666
  H      -0.036417     -1.027957     -2.168168
  H      -1.634915     -0.301822     -2.503954
27
Coordinates from ORCA-job opt E -876.482566276768
  C       3.552549     -1.150698     -1.042195
  C       2.930656     -0.330473      0.060869
  O       1.526248     -0.175540     -0.228199
  P       0.567881      0.713829      0.683011
  O       0.939255      2.126079      0.938627
  C       0.654196     -0.194746      2.265957
  N       0.652625     -0.709292      3.302244
  N      -0.917856      0.421735      0.082724
  C      -1.928496      1.482514      0.038551
  C      -2.894291      1.438290      1.213862
  C      -1.267375     -0.899688     -0.442740
  C      -1.311750     -0.939535     -1.962780
  H       3.437054     -0.648739     -2.013786
  H       3.084263     -2.143935     -1.099497
  H       4.625470     -1.282348     -0.842762
  H       3.039630     -0.829764      1.037972
  H       3.386378      0.669162      0.128613
  H      -1.409268      2.450709      0.006759
  H      -2.466302      1.386964     -0.917699
  H      -2.357521      1.592783      2.162536
  H      -3.651786      2.229987      1.113211
  H      -3.420871      0.472934      1.270012
  H      -0.548060     -1.635291     -0.048543
  H      -2.237798     -1.193001     -0.011652
  H      -1.615328     -1.936837     -2.315539
  H      -0.325801     -0.702003     -2.386254
  H      -2.043702     -0.213097     -2.349218
27
Coordinates from ORCA-job opt E -876.483132227422
  C       3.560704     -1.109460     -1.068572
  C       2.927470     -0.307105      0.041381
  O       1.524377     -0.157295     -0.254131
  P       0.550314      0.700886      0.671083
  O       0.921249      2.107206      0.962895
  C       0.625363     -0.244989      2.234088
  N       0.619504     -0.793007      3.252862
  N      -0.935995      0.435390      0.055073
  C      -1.933279      1.511293      0.051354
  C      -2.875290      1.463561      1.246637
  C      -1.337983     -0.888351     -0.437208
  C      -1.240442     -1.024355     -1.950511
  H       3.447829     -0.595915     -2.034396
  H       3.098556     -2.104579     -1.141825
  H       4.633312     -1.237881     -0.865198
  H       3.034083     -0.819139      1.012279
  H       3.377511      0.693938      0.124607
  H      -1.400336      2.472108      0.026819
  H      -2.492601      1.444372     -0.894681
  H      -2.316136      1.594087      2.185935
  H      -3.622551      2.268048      1.175579
  H      -3.414869      0.505434      1.298211
  H      -0.724954     -1.655830      0.061025
  H      -2.369003     -1.075025     -0.099541
  H      -1.596930     -2.014786     -2.270639
  H      -0.200568     -0.902450     -2.285035
  H      -1.859332     -0.266155     -2.454003
27
Coordinates from ORCA-job opt E -876.483210623807
  C       3.546557     -1.122268     -1.061121
  C       2.912960     -0.304501      0.036863
  O       1.509826     -0.151829     -0.266869
  P       0.544688      0.713077      0.661644
  O       0.917794      2.117112      0.954539
  C       0.623481     -0.237563      2.219062
  N       0.626207     -0.796252      3.232055
  N      -0.939277      0.445959      0.038032
  C      -1.947074      1.513479      0.058897
  C      -2.865429      1.458777      1.271301
  C      -1.338341     -0.879190     -0.450733
  C      -1.206564     -1.025575     -1.958602
  H       3.440711     -0.618590     -2.032772
  H       3.080213     -2.116045     -1.124655
  H       4.617688     -1.252857     -0.851127
  H       3.014036     -0.804229      1.014757
  H       3.364718      0.696321      0.111379
  H      -1.422656      2.478267      0.018694
  H      -2.525139      1.434346     -0.875491
  H      -2.293336      1.600735      2.201341
  H      -3.622141      2.254942      1.209221
  H      -3.393176      0.495012      1.336143
  H      -0.737016     -1.645623      0.063678
  H      -2.378347     -1.053145     -0.130511
  H      -1.560635     -2.017675     -2.275800
  H      -0.158855     -0.912831     -2.272779
  H      -1.810894     -0.269854     -2.483061
27
Coordinates from ORCA-job opt E -876.483234033522
  C       3.547242     -1.121576     -1.061080
  C       2.912825     -0.309316      0.040497
  O       1.510371     -0.153987     -0.264461
  P       0.544569      0.714393      0.659973
  O       0.916651      2.120011      0.947385
  C       0.622077     -0.229262      2.222253
  N       0.626010     -0.785015      3.236856
  N      -0.937797      0.447038      0.034215
  C      -1.946686      1.512897      0.057437
  C      -2.862832      1.455875      1.271622
  C      -1.338273     -0.878743     -0.451379
  C      -1.211373     -1.024588     -1.960146
  H       3.444143     -0.612072     -2.030014
  H       3.079436     -2.114221     -1.131243
  H       4.617774     -1.255268     -0.849988
  H       3.011600     -0.814577      1.015732
  H       3.365561      0.690667      0.120920
  H      -1.423538      2.478435      0.017812
  H      -2.526485      1.434908     -0.875944
  H      -2.289584      1.600436      2.200528
  H      -3.623107      2.248706      1.210529
  H      -3.386188      0.489717      1.337694
  H      -0.732657     -1.644866      0.058327
  H      -2.376570     -1.053347     -0.127692
  H      -1.562397     -2.017894     -2.277284
  H      -0.163893     -0.908691     -2.273881
  H      -1.816878     -0.269660     -2.484583
27
Coordinates from ORCA-job opt E -876.483253566966
  C       3.547931     -1.119294     -1.061474
  C       2.911555     -0.320708      0.048881
  O       1.510456     -0.158527     -0.258733
  P       0.544579      0.718138      0.657217
  O       0.915129      2.126220      0.935007
  C       0.619139     -0.213225      2.227458
  N       0.626485     -0.765344      3.244047
  N      -0.934572      0.449709      0.026061
  C      -1.947011      1.511705      0.054065
  C      -2.857428      1.452082      1.272802
  C      -1.336334     -0.877957     -0.453185
  C      -1.219491     -1.023144     -1.963555
  H       3.451011     -0.595732     -2.023506
  H       3.077086     -2.109252     -1.147481
  H       4.617079     -1.259968     -0.847898
  H       3.004910     -0.839290      1.017494
  H       3.366297      0.677126      0.144056
  H      -1.427393      2.479047      0.012109
  H      -2.531341      1.432095     -0.876245
  H      -2.281483      1.605273      2.198621
  H      -3.625469      2.237350      1.212054
  H      -3.371258      0.481172      1.344592
  H      -0.721701     -1.642340      0.047728
  H      -2.371222     -1.054997     -0.121072
  H      -1.562982     -2.019467     -2.279434
  H      -0.173332     -0.898814     -2.278916
  H      -1.830641     -0.271859     -2.486609
27
Coordinates from ORCA-job opt E -876.483251578441
  C       3.549679     -1.114886     -1.063165
  C       2.911641     -0.325402      0.052732
  O       1.510947     -0.160992     -0.255347
  P       0.544638      0.717962      0.657575
  O       0.915012      2.126365      0.934109
  C       0.616830     -0.211113      2.229256
  N       0.625000     -0.763581      3.245650
  N      -0.933535      0.449767      0.023802
  C      -1.946425      1.511435      0.051599
  C      -2.855144      1.453894      1.271766
  C      -1.336013     -0.878633     -0.452865
  C      -1.223591     -1.024879     -1.963619
  H       3.454570     -0.583374     -2.020997
  H       3.078788     -2.104020     -1.158070
  H       4.618416     -1.257674     -0.848918
  H       3.003328     -0.851793      1.017236
  H       3.366254      0.671653      0.156488
  H      -1.427248      2.478904      0.007146
  H      -2.532139      1.429768     -0.877625
  H      -2.278278      1.610982      2.196357
  H      -3.624685      2.237568      1.209620
  H      -3.367294      0.482375      1.347162
  H      -0.719021     -1.642186      0.046281
  H      -2.369676     -1.056319     -0.117134
  H      -1.565095     -2.022412     -2.277700
  H      -0.178638     -0.897766     -2.281887
  H      -1.838319     -0.275645     -2.485368
27
Coordinates from ORCA-job opt E -876.483267046161
  C       3.556548     -1.098795     -1.068493
  C       2.911880     -0.337195      0.062890
  O       1.512346     -0.168071     -0.247125
  P       0.544396      0.715074      0.659020
  O       0.915167      2.123541      0.934915
  C       0.609316     -0.211131      2.232561
  N       0.618888     -0.766287      3.247473
  N      -0.931704      0.448513      0.018589
  C      -1.944093      1.511007      0.044159
  C      -2.848019      1.462415      1.268288
  C      -1.336801     -0.881556     -0.451155
  C      -1.235074     -1.032675     -1.962236
  H       3.466312     -0.544289     -2.013648
  H       3.087126     -2.085770     -1.189852
  H       4.624172     -1.246153     -0.851740
  H       2.999194     -0.886243      1.014999
  H       3.364701      0.657744      0.192129
  H      -1.424733      2.477953     -0.008852
  H      -2.533612      1.422887     -0.881975
  H      -2.268031      1.629045      2.189257
  H      -3.619075      2.244269      1.201945
  H      -3.358761      0.491061      1.354336
  H      -0.716106     -1.643086      0.046386
  H      -2.367873     -1.059494     -0.107076
  H      -1.574209     -2.032896     -2.270054
  H      -0.193545     -0.901367     -2.289730
  H      -1.858412     -0.288502     -2.480927
27
Coordinates from ORCA-job opt E -876.483267844936
  C       3.558298     -1.094553     -1.069644
  C       2.911432     -0.338127      0.063968
  O       1.512000     -0.169554     -0.246823
  P       0.543791      0.713427      0.659182
  O       0.915422      2.121453      0.936060
  C       0.607145     -0.214029      2.232003
  N       0.616730     -0.770626      3.246128
  N      -0.932229      0.447824      0.017911
  C      -1.943722      1.511245      0.042985
  C      -2.846131      1.465482      1.268276
  C      -1.338093     -0.882357     -0.450769
  C      -1.235688     -1.035625     -1.961383
  H       3.468836     -0.536320     -2.012676
  H       3.089954     -2.081453     -1.195651
  H       4.625744     -1.241801     -0.851945
  H       2.998298     -0.890837      1.013997
  H       3.363041      0.656779      0.197616
  H      -1.423801      2.477744     -0.012570
  H      -2.534396      1.421654     -0.882269
  H      -2.264873      1.633059      2.188274
  H      -3.616261      2.248242      1.201602
  H      -3.357960      0.494914      1.356564
  H      -0.718888     -1.643766      0.048915
  H      -2.369631     -1.059043     -0.107300
  H      -1.576521     -2.035760     -2.267682
  H      -0.194160     -0.906474     -2.289694
  H      -1.858338     -0.291497     -2.480991
27
Coordinates from ORCA-job opt E -876.483269415881
  C       3.560309     -1.090107     -1.070739
  C       2.910731     -0.338219      0.064369
  O       1.511214     -0.171646     -0.247303
  P       0.542972      0.710996      0.659178
  O       0.916178      2.118443      0.936748
  C       0.604882     -0.218052      2.231141
  N       0.614403     -0.775871      3.244595
  N      -0.933257      0.446707      0.017894
  C      -1.943256      1.511564      0.042174
  C      -2.844390      1.468897      1.268459
  C      -1.340042     -0.883386     -0.450176
  C      -1.235687     -1.038778     -1.960181
  H       3.471258     -0.529114     -2.012172
  H       3.093663     -2.077323     -1.200470
  H       4.627674     -1.236334     -0.851950
  H       2.997731     -0.893601      1.012834
  H       3.360365      0.657117      0.201428
  H      -1.422378      2.477401     -0.015853
  H      -2.534908      1.420884     -0.882358
  H      -2.261813      1.636518      2.187623
  H      -3.612952      2.253219      1.201784
  H      -3.357886      0.499375      1.358461
  H      -0.723239     -1.644973      0.052326
  H      -2.372500     -1.058337     -0.108519
  H      -1.579807     -2.038141     -2.265455
  H      -0.193625     -0.913755     -2.288363
  H      -1.855638     -0.293486     -2.481389
