38
Coordinates from ORCA-job opt E -1980.498350623679
  C           3.99357677892307     -3.05923789677666     -0.09142226232491
  C           3.28831552981367     -2.36256021322435      1.04697516788396
  O           2.02086751026275     -1.89234510749925      0.56044675117902
  C           1.24582960843600     -1.24520581820849      1.41787891371783
  O           1.54280489216831     -1.03717594309864      2.57102893074740
  C          -0.07042248186977     -0.84151140324517      0.79371749448135
  C          -0.58350079264158      0.46547660821578      1.38729411556787
  S          -2.37096641203316      0.75648470061995      1.18665593921891
  P          -2.59535539096334      0.59524457224610     -0.89213842845279
  S          -1.31366586629591      1.49459147106864     -2.01923776105964
  O          -2.64709517850298     -0.97026902579930     -1.26160822060290
  C          -3.58218101332875     -1.86910714684265     -0.65688301664426
  O          -4.11887754164716      1.10328071893713     -0.91726399055959
  C          -4.79312625295146      1.37003763163266     -2.15347101629266
  C           0.23685751473643      1.70551688384713      1.02543725680899
  O          -0.11640022922975      2.83673157658974      1.23743568334545
  O           1.42121288160354      1.36413339085968      0.53662098845151
  C           2.37164073204107      2.40784205199617      0.25400455972453
  C           2.16511984707964      2.98189827180853     -1.13042219088079
  H           3.40574334334964     -3.91589954409651     -0.45218243195614
  H           4.16119671052709     -2.36813096575122     -0.93038139691724
  H           4.96983077805015     -3.43012948419934      0.25186237440354
  H           3.86118757255500     -1.49918409090893      1.41910814304347
  H           3.11108961682637     -3.03912245183308      1.89714476122877
  H          -0.78422544447470     -1.64967656873877      1.01899786233646
  H           0.03828566428813     -0.78668336488066     -0.29682866178714
  H          -0.49268629718504      0.39151045849891      2.48521529886737
  H          -4.60770946806555     -1.62756438826962     -0.96981258316378
  H          -3.31513881467149     -2.87491506956181     -0.99991153382001
  H          -3.50915707977719     -1.82279578423280      0.44001532116631
  H          -4.29558057054782      2.19223121251311     -2.68745374042045
  H          -5.81689226383713      1.65951154337308     -1.89219484281292
  H          -4.81284834472113      0.47109023278510     -2.78682692557108
  H           2.28147371398918      3.17995545401837      1.03085182962881
  H           3.35009069851266      1.91958652046308      0.34796158436130
  H           2.94448601730965      3.73048371081956     -1.33512868517374
  H           1.18444256200314      3.47175249190463     -1.21231920117198
  H           2.23177746026841      2.19415477496987     -1.89500600655085
