38
Coordinates from ORCA-job opt E -1980.478373433145
  C       5.001463     -2.780333      0.345368
  C       4.040337     -2.108516      1.306390
  O       2.760476     -2.018003      0.668764
  C       1.800949     -1.410322      1.420092
  O       1.959609     -0.988112      2.556577
  C       0.499731     -1.376429      0.653690
  C      -0.444901     -0.320267      1.232777
  S      -2.187241     -0.812884      0.916762
  P      -2.733036     -0.119490     -1.005484
  S      -1.406322     -0.198534     -2.437776
  O      -4.043061     -0.988398     -1.440012
  C      -5.146127     -1.086595     -0.560731
  O      -3.434284      1.332771     -0.817113
  C      -3.923689      2.024792     -1.948146
  C      -0.161794      1.088265      0.712800
  O      -1.013510      1.944342      0.514814
  O       1.176060      1.292250      0.558516
  C       1.578479      2.608481      0.148760
  C       1.532540      2.729489     -1.362216
  H       4.640879     -3.778045      0.073986
  H       5.080877     -2.206818     -0.584095
  H       5.996453     -2.872905      0.789535
  H       4.403592     -1.104119      1.551360
  H       3.954861     -2.704369      2.221933
  H       0.079200     -2.386201      0.731121
  H       0.726480     -1.168101     -0.396807
  H      -0.356911     -0.269654      2.323496
  H      -5.303805     -0.160310     -0.002662
  H      -6.042302     -1.292810     -1.151688
  H      -4.989998     -1.916040      0.133509
  H      -3.100617      2.528598     -2.461138
  H      -4.636547      2.781181     -1.609685
  H      -4.436394      1.347032     -2.635853
  H       0.968120      3.379184      0.633145
  H       2.607230      2.747692      0.496813
  H       1.926237      3.697338     -1.685294
  H       0.507446      2.632642     -1.731985
  H       2.119520      1.933198     -1.831361
38
Coordinates from ORCA-job opt E -1980.489273703074
  C       4.922494     -2.788027      0.310313
  C       3.994277     -2.114223      1.299169
  O       2.710584     -1.972370      0.675645
  C       1.768497     -1.366265      1.411487
  O       1.944350     -0.968965      2.537431
  C       0.460037     -1.303446      0.656166
  C      -0.473345     -0.241181      1.238720
  S      -2.231153     -0.700324      0.963515
  P      -2.714970     -0.059856     -0.976877
  S      -1.307363     -0.085200     -2.321434
  O      -3.925824     -1.050833     -1.417174
  C      -5.066787     -1.229984     -0.580684
  O      -3.488693      1.351613     -0.801056
  C      -3.965604      2.042601     -1.948209
  C      -0.138856      1.165472      0.757835
  O      -0.931638      2.056929      0.596021
  O       1.177791      1.289172      0.563183
  C       1.653354      2.572130      0.134102
  C       1.563283      2.702649     -1.373859
  H       4.535064     -3.776695      0.022580
  H       5.014107     -2.189198     -0.608075
  H       5.921041     -2.915240      0.748966
  H       4.377060     -1.119885      1.572499
  H       3.891925     -2.722301      2.210176
  H       0.013716     -2.305551      0.731475
  H       0.675015     -1.103892     -0.401351
  H      -0.380127     -0.213067      2.336029
  H      -5.342637     -0.298408     -0.065487
  H      -5.904461     -1.539174     -1.217790
  H      -4.875084     -2.022517      0.158174
  H      -3.143772      2.592161     -2.429915
  H      -4.723678      2.760401     -1.611805
  H      -4.427573      1.352611     -2.669534
  H       1.098834      3.371292      0.644696
  H       2.699284      2.628207      0.463355
  H       2.008639      3.651739     -1.702579
  H       0.516947      2.674429     -1.711884
  H       2.095267      1.875197     -1.865666
38
Coordinates from ORCA-job opt E -1980.492401869834
  C       4.863967     -2.757203      0.230642
  C       3.963638     -2.102756      1.253089
  O       2.665969     -1.945670      0.661157
  C       1.732569     -1.354145      1.391855
  O       1.923010     -0.948396      2.507891
  C       0.413079     -1.295715      0.654283
  C      -0.510407     -0.214708      1.215238
  S      -2.281800     -0.626399      1.017373
  P      -2.701840     -0.127427     -0.964656
  S      -1.263483     -0.259125     -2.255814
  O      -3.900187     -1.150182     -1.325967
  C      -5.077501     -1.254353     -0.516029
  O      -3.427600      1.306847     -0.845638
  C      -3.865760      1.982215     -2.026832
  C      -0.161183      1.194762      0.744660
  O      -0.932571      2.107176      0.655047
  O       1.144263      1.299147      0.565150
  C       1.677929      2.575353      0.179950
  C       1.601374      2.768956     -1.320173
  H       4.474864     -3.744919     -0.062290
  H       4.943279     -2.136871     -0.675866
  H       5.871166     -2.889941      0.652094
  H       4.341166     -1.110689      1.547101
  H       3.869882     -2.717117      2.162678
  H      -0.051213     -2.287925      0.765327
  H       0.602264     -1.142036     -0.415792
  H      -0.401476     -0.188946      2.314156
  H      -5.378701     -0.272542     -0.117422
  H      -5.879170     -1.638380     -1.159593
  H      -4.911622     -1.961012      0.313201
  H      -3.014932      2.471374     -2.526140
  H      -4.588783      2.743093     -1.706937
  H      -4.357495      1.288643     -2.727352
  H       1.140699      3.366852      0.721498
  H       2.719010      2.559879      0.529858
  H       2.084751      3.717119     -1.600080
  H       0.556028      2.796915     -1.664623
  H       2.116817      1.948126     -1.842883
38
Coordinates from ORCA-job opt E -1980.491135208672
  C       4.900182     -2.763599      0.369764
  C       3.966715     -2.162663      1.391271
  O       2.697634     -1.947070      0.756010
  C       1.735574     -1.384422      1.461533
  O       1.867674     -1.041235      2.610712
  C       0.447764     -1.298758      0.673402
  C      -0.484766     -0.213938      1.207994
  S      -2.261366     -0.569512      1.006225
  P      -2.661784      0.067612     -0.937508
  S      -1.183626      0.264226     -2.161887
  O      -3.704404     -1.048419     -1.440033
  C      -4.907941     -1.361898     -0.724678
  O      -3.539229      1.382950     -0.658099
  C      -4.005574      2.180769     -1.755572
  C      -0.112093      1.211343      0.795419
  O      -0.881686      2.131086      0.719977
  O       1.157054      1.259836      0.443003
  C       1.695423      2.491446     -0.069771
  C       1.418334      2.632563     -1.550059
  H       4.517501     -3.727426      0.002200
  H       5.033204     -2.086338     -0.487093
  H       5.883918     -2.935444      0.830814
  H       4.333021     -1.196319      1.771942
  H       3.817156     -2.822716      2.260410
  H      -0.041128     -2.281963      0.761894
  H       0.669250     -1.154211     -0.390236
  H      -0.397202     -0.218424      2.309733
  H      -5.356641     -0.456247     -0.288920
  H      -5.602379     -1.795212     -1.454091
  H      -4.700243     -2.097814      0.067060
  H      -3.187700      2.801006     -2.150615
  H      -4.800076      2.820277     -1.353868
  H      -4.412781      1.551625     -2.561664
  H       1.265835      3.322260      0.507733
  H       2.769659      2.423477      0.144533
  H       1.897421      3.548258     -1.927348
  H       0.338293      2.699682     -1.747462
  H       1.829004      1.775212     -2.104567
38
Coordinates from ORCA-job opt E -1980.493932175068
  C       4.842596     -2.789865      0.276480
  C       3.927522     -2.176537      1.307811
  O       2.654036     -1.943846      0.687256
  C       1.710658     -1.364376      1.416223
  O       1.864704     -1.021446      2.567126
  C       0.412553     -1.257337      0.650268
  C      -0.479554     -0.146575      1.196695
  S      -2.270613     -0.463055      1.027964
  P      -2.723460     -0.034255     -0.971046
  S      -1.288913      0.008045     -2.262078
  O      -3.800507     -1.172931     -1.333697
  C      -4.991724     -1.377164     -0.566045
  O      -3.585968      1.313505     -0.819922
  C      -4.065994      1.993984     -1.985871
  C      -0.064941      1.268730      0.785382
  O      -0.797172      2.227196      0.771784
  O       1.225328      1.298884      0.484325
  C       1.819212      2.551443      0.094461
  C       1.618194      2.816599     -1.380941
  H       4.441951     -3.746590     -0.087747
  H       4.974625     -2.114738     -0.581030
  H       5.828559     -2.976192      0.724912
  H       4.313936     -1.216749      1.683120
  H       3.780802     -2.836669      2.176468
  H      -0.095917     -2.228122      0.757832
  H       0.619566     -1.125534     -0.417751
  H      -0.368454     -0.152273      2.295394
  H      -5.410401     -0.419969     -0.224157
  H      -5.712515     -1.873362     -1.225629
  H      -4.777998     -2.024281      0.296760
  H      -3.248154      2.553413     -2.460681
  H      -4.842405      2.687012     -1.643536
  H      -4.498525      1.287265     -2.708554
  H       1.388100      3.349725      0.714789
  H       2.880624      2.438242      0.347205
  H       2.139441      3.742911     -1.661920
  H       0.552392      2.932013     -1.620737
  H       2.028416      1.992899     -1.982752
38
Coordinates from ORCA-job opt E -1980.494174560514
  C       4.847237     -2.707140      0.253450
  C       3.930181     -2.101488      1.288115
  O       2.631777     -1.947282      0.694078
  C       1.687863     -1.381610      1.433714
  O       1.870259     -0.967388      2.554980
  C       0.372191     -1.314255      0.695276
  C      -0.504157     -0.180282      1.215970
  S      -2.294423     -0.473621      1.051607
  P      -2.716649     -0.019577     -0.951691
  S      -1.258383      0.038373     -2.216117
  O      -3.797708     -1.139418     -1.360080
  C      -4.996634     -1.362130     -0.610390
  O      -3.569704      1.334866     -0.790573
  C      -4.034495      2.036365     -1.949757
  C      -0.081138      1.212499      0.753213
  O      -0.797392      2.180907      0.739211
  O       1.215275      1.232155      0.481858
  C       1.813652      2.482332      0.092298
  C       1.636783      2.730918     -1.389603
  H       4.480869     -3.692302     -0.070238
  H       4.926870     -2.055092     -0.628625
  H       5.851889     -2.834720      0.680945
  H       4.283716     -1.113591      1.621342
  H       3.836172     -2.740071      2.180215
  H      -0.130966     -2.279559      0.861663
  H       0.554416     -1.229141     -0.382925
  H      -0.390626     -0.154191      2.314917
  H      -5.417166     -0.413922     -0.245364
  H      -5.712843     -1.840101     -1.288819
  H      -4.790874     -2.032924      0.237055
  H      -3.202767      2.580043     -2.419861
  H      -4.794405      2.745656     -1.602562
  H      -4.483741      1.345117     -2.677936
  H       1.371305      3.286930      0.696523
  H       2.871646      2.375294      0.362805
  H       2.162237      3.654525     -1.672644
  H       0.574104      2.843606     -1.647604
  H       2.055629      1.900218     -1.976286
38
Coordinates from ORCA-job opt E -1980.494424267748
  C       4.832237     -2.686823      0.219415
  C       3.917423     -2.106306      1.270331
  O       2.619254     -1.929573      0.680700
  C       1.682659     -1.375867      1.437682
  O       1.864498     -1.022687      2.578789
  C       0.353650     -1.312684      0.723272
  C      -0.510620     -0.177741      1.259602
  S      -2.300331     -0.445264      1.096245
  P      -2.673042     -0.046909     -0.931755
  S      -1.186214     -0.048452     -2.162992
  O      -3.770622     -1.147487     -1.343724
  C      -4.983763     -1.342076     -0.609465
  O      -3.492882      1.333017     -0.813220
  C      -3.929724      2.019093     -1.992659
  C      -0.084206      1.215853      0.807667
  O      -0.792903      2.188913      0.819921
  O       1.197695      1.224490      0.476747
  C       1.786755      2.476570      0.078021
  C       1.538511      2.749797     -1.389462
  H       4.461284     -3.660862     -0.132173
  H       4.915775     -2.009976     -0.643703
  H       5.836220     -2.831332      0.643461
  H       4.275841     -1.129862      1.631292
  H       3.820250     -2.769459      2.144166
  H      -0.147174     -2.276825      0.904370
  H       0.515252     -1.232747     -0.359093
  H      -0.393187     -0.162455      2.358692
  H      -5.396685     -0.382221     -0.266287
  H      -5.695617     -1.823192     -1.290406
  H      -4.798107     -2.000401      0.252752
  H      -3.074225      2.505744     -2.482664
  H      -4.652777      2.775193     -1.665883
  H      -4.414888      1.325941     -2.695937
  H       1.381229      3.274590      0.715740
  H       2.856123      2.357038      0.293595
  H       2.058093      3.673442     -1.683796
  H       0.464969      2.876573     -1.591420
  H       1.919248      1.924946     -2.009662
38
Coordinates from ORCA-job opt E -1980.494731533294
  C       4.829008     -2.680246      0.240818
  C       3.908356     -2.108010      1.290758
  O       2.612001     -1.931825      0.696688
  C       1.669292     -1.385247      1.450926
  O       1.844082     -1.034590      2.594940
  C       0.344000     -1.317087      0.728879
  C      -0.509141     -0.163421      1.243780
  S      -2.305187     -0.402095      1.079643
  P      -2.692384     -0.001247     -0.947667
  S      -1.213908      0.064698     -2.185496
  O      -3.751276     -1.132534     -1.370118
  C      -4.949513     -1.386825     -0.629536
  O      -3.557863      1.347706     -0.803957
  C      -4.029282      2.034702     -1.969924
  C      -0.053113      1.224960      0.795897
  O      -0.742661      2.212873      0.814733
  O       1.224271      1.205469      0.445495
  C       1.845750      2.445750      0.056004
  C       1.585153      2.753514     -1.402301
  H       4.462642     -3.653308     -0.117335
  H       4.915619     -1.998295     -0.617644
  H       5.831068     -2.824530      0.669241
  H       4.261248     -1.132664      1.659317
  H       3.808545     -2.775153      2.161048
  H      -0.170663     -2.270691      0.926451
  H       0.508596     -1.259360     -0.353282
  H      -0.397919     -0.145113      2.343009
  H      -5.399160     -0.448923     -0.272608
  H      -5.644448     -1.889697     -1.311648
  H      -4.729233     -2.045682      0.223558
  H      -3.192702      2.541493     -2.471530
  H      -4.760444      2.773111     -1.622502
  H      -4.513484      1.337297     -2.669252
  H       1.474609      3.243883      0.713754
  H       2.913478      2.287980      0.253473
  H       2.130548      3.665094     -1.687211
  H       0.514115      2.919136     -1.585271
  H       1.929998      1.928878     -2.042971
38
Coordinates from ORCA-job opt E -1980.494866076875
  C       4.789585     -2.651761      0.205098
  C       3.882067     -2.087801      1.270942
  O       2.573980     -1.924021      0.699328
  C       1.638609     -1.388584      1.471411
  O       1.830052     -1.032328      2.611613
  C       0.303194     -1.315830      0.768044
  C      -0.520716     -0.134353      1.267257
  S      -2.321926     -0.327477      1.099272
  P      -2.688198      0.037779     -0.941435
  S      -1.194059      0.146901     -2.157067
  O      -3.701838     -1.127029     -1.379706
  C      -4.897080     -1.427064     -0.651941
  O      -3.600396      1.358187     -0.814793
  C      -4.092491      2.016371     -1.988367
  C      -0.026395      1.238939      0.811198
  O      -0.685158      2.248098      0.840542
  O       1.246197      1.180029      0.445287
  C       1.906150      2.402727      0.062807
  C       1.638457      2.742244     -1.387190
  H       4.425129     -3.627495     -0.147229
  H       4.855889     -1.969021     -0.654375
  H       5.799885     -2.787988      0.616138
  H       4.232465     -1.109368      1.633091
  H       3.803807     -2.756180      2.142284
  H      -0.225931     -2.252908      1.002466
  H       0.450213     -1.289502     -0.317688
  H      -0.412955     -0.108437      2.366482
  H      -5.390970     -0.506103     -0.309787
  H      -5.560316     -1.966002     -1.337720
  H      -4.659198     -2.067323      0.210186
  H      -3.267548      2.521372     -2.510441
  H      -4.826956      2.754100     -1.647030
  H      -4.577668      1.299310     -2.666568
  H       1.574082      3.204002      0.737284
  H       2.970003      2.203459      0.242629
  H       2.215990      3.635589     -1.666024
  H       0.572831      2.952848     -1.553048
  H       1.941216      1.914622     -2.044790
38
Coordinates from ORCA-job opt E -1980.494926060519
  C       4.736915     -2.645376      0.161740
  C       3.852899     -2.069660      1.241306
  O       2.533906     -1.907960      0.695080
  C       1.613667     -1.371176      1.484217
  O       1.823512     -1.025209      2.624036
  C       0.262595     -1.304366      0.810051
  C      -0.532544     -0.092790      1.283789
  S      -2.337397     -0.247118      1.114360
  P      -2.689353      0.088607     -0.935811
  S      -1.184665      0.268706     -2.130187
  O      -3.641563     -1.118451     -1.395837
  C      -4.827579     -1.480986     -0.681302
  O      -3.664772      1.364873     -0.815509
  C      -4.191369      1.990733     -1.991181
  C      -0.007232      1.260838      0.803726
  O      -0.642567      2.284604      0.824253
  O       1.270611      1.174149      0.463628
  C       1.961995      2.381795      0.090567
  C       1.741691      2.718921     -1.367947
  H       4.361573     -3.622578     -0.175177
  H       4.787734     -1.970419     -0.705081
  H       5.755002     -2.782106      0.553010
  H       4.213207     -1.088718      1.586751
  H       3.791995     -2.731079      2.119347
  H      -0.275911     -2.221252      1.097066
  H       0.382727     -1.321084     -0.279247
  H      -0.427716     -0.046344      2.382670
  H      -5.381712     -0.586605     -0.360809
  H      -5.445800     -2.069450     -1.368486
  H      -4.565551     -2.093035      0.194323
  H      -3.386538      2.499798     -2.540552
  H      -4.931256      2.722889     -1.649320
  H      -4.678226      1.251653     -2.644309
  H       1.627506      3.193108      0.752098
  H       3.017062      2.164613      0.300039
  H       2.344883      3.599214     -1.633958
  H       0.685626      2.949080     -1.566138
  H       2.046645      1.882180     -2.013050
38
Coordinates from ORCA-job opt E -1980.495084442263
  C       4.678900     -2.589879      0.081431
  C       3.813930     -2.043897      1.191753
  O       2.482291     -1.883523      0.677682
  C       1.572311     -1.380434      1.499668
  O       1.801682     -1.059206      2.642410
  C       0.211153     -1.289005      0.848715
  C      -0.547550     -0.052616      1.319015
  S      -2.355056     -0.153872      1.138434
  P      -2.677672      0.107046     -0.927880
  S      -1.156664      0.290922     -2.101309
  O      -3.594348     -1.131147     -1.378368
  C      -4.783901     -1.502748     -0.673876
  O      -3.685600      1.362048     -0.849112
  C      -4.228821      1.933991     -2.044081
  C       0.016813      1.286562      0.842742
  O      -0.594971      2.323911      0.852817
  O       1.293898      1.167860      0.512219
  C       2.015340      2.356725      0.138676
  C       1.828565      2.684360     -1.326435
  H       4.303670     -3.563156     -0.267422
  H       4.704938     -1.897633     -0.773010
  H       5.706497     -2.726212      0.447377
  H       4.173085     -1.066209      1.548097
  H       3.779245     -2.723854      2.057083
  H      -0.345418     -2.185910      1.162922
  H       0.309393     -1.321939     -0.242749
  H      -0.449472     -0.005672      2.418651
  H      -5.380652     -0.615286     -0.416099
  H      -5.360549     -2.151064     -1.343329
  H      -4.523173     -2.057176      0.239926
  H      -3.431016      2.408754     -2.633597
  H      -4.955478      2.689487     -1.724940
  H      -4.735091      1.168124     -2.650248
  H       1.686188      3.181211      0.786934
  H       3.062395      2.121140      0.368737
  H       2.454159      3.550269     -1.588276
  H       0.781041      2.932176     -1.548328
  H       2.129938      1.835850     -1.958067
38
Coordinates from ORCA-job opt E -1980.495217357328
  C       4.619098     -2.564971      0.027728
  C       3.765088     -2.046804      1.159602
  O       2.432902     -1.857351      0.658033
  C       1.528852     -1.382519      1.502993
  O       1.761319     -1.117351      2.659552
  C       0.166701     -1.251582      0.861105
  C      -0.555061      0.003888      1.339321
  S      -2.363528     -0.040828      1.152182
  P      -2.667728      0.150004     -0.923937
  S      -1.140273      0.370039     -2.082838
  O      -3.527923     -1.133201     -1.362963
  C      -4.705728     -1.542838     -0.660027
  O      -3.728352      1.362660     -0.878205
  C      -4.302983      1.870151     -2.087609
  C       0.048029      1.330205      0.873734
  O      -0.534196      2.384530      0.887440
  O       1.321781      1.174939      0.544775
  C       2.080292      2.341277      0.174766
  C       1.909025      2.670453     -1.291373
  H       4.232603     -3.522927     -0.349893
  H       4.647312     -1.846558     -0.804623
  H       5.647179     -2.722824      0.383340
  H       4.134793     -1.083862      1.544557
  H       3.728977     -2.753368      2.003164
  H      -0.413459     -2.131455      1.180208
  H       0.254801     -1.283036     -0.231240
  H      -0.460549      0.041769      2.439812
  H      -5.355472     -0.681359     -0.447324
  H      -5.234346     -2.248303     -1.310986
  H      -4.430545     -2.045383      0.279108
  H      -3.524084      2.324165     -2.717198
  H      -5.031050      2.632971     -1.790050
  H      -4.813337      1.070125     -2.643969
  H       1.771761      3.176186      0.819479
  H       3.119225      2.076452      0.409982
  H       2.558943      3.518557     -1.551731
  H       0.869446      2.945444     -1.518980
  H       2.190485      1.812704     -1.919772
38
Coordinates from ORCA-job opt E -1980.495675213512
  C       4.427458     -2.497575     -0.112885
  C       3.585476     -2.075382      1.066466
  O       2.271416     -1.764300      0.581940
  C       1.368371     -1.381778      1.473524
  O       1.576837     -1.321932      2.663738
  C       0.026164     -1.098908      0.839923
  C      -0.577871      0.198915      1.367562
  S      -2.375662      0.340213      1.149769
  P      -2.645140      0.310474     -0.935092
  S      -1.136573      0.668929     -2.084897
  O      -3.302291     -1.111331     -1.309812
  C      -4.407760     -1.652399     -0.580053
  O      -3.875256      1.350676     -0.968482
  C      -4.556299      1.621159     -2.199487
  C       0.151733      1.482343      0.963948
  O      -0.330689      2.586276      0.994050
  O       1.410379      1.209907      0.649004
  C       2.288796      2.294659      0.299897
  C       2.174615      2.623373     -1.170091
  H       4.001253     -3.385720     -0.601381
  H       4.497678     -1.690994     -0.856615
  H       5.443019     -2.744282      0.226995
  H       3.993051     -1.180388      1.562449
  H       3.508456     -2.871189      1.822754
  H      -0.636729     -1.926631      1.134286
  H       0.106983     -1.089408     -0.253217
  H      -0.505338      0.186773      2.470961
  H      -5.218598     -0.916522     -0.490134
  H      -4.765379     -2.518075     -1.148436
  H      -4.085304     -1.978220      0.419584
  H      -3.850784      1.996162     -2.954161
  H      -5.304062      2.390945     -1.979967
  H      -5.056549      0.716231     -2.573106
  H       2.045622      3.160168      0.930593
  H       3.293687      1.936485      0.558106
  H       2.898621      3.410882     -1.423090
  H       1.165875      2.981705     -1.420805
  H       2.394792      1.738758     -1.785678
38
Coordinates from ORCA-job opt E -1980.494996889389
  C       4.349090     -2.697307     -0.082219
  C       3.498849     -2.228343      1.071987
  O       2.243398     -1.782624      0.541992
  C       1.336329     -1.343177      1.403089
  O       1.487615     -1.346677      2.604628
  C       0.052251     -0.943540      0.716960
  C      -0.557258      0.304454      1.352877
  S      -2.356862      0.448607      1.157174
  P      -2.641654      0.392765     -0.908415
  S      -1.163363      0.871226     -2.054840
  O      -3.162876     -1.098793     -1.260401
  C      -4.209382     -1.732499     -0.521576
  O      -3.961023      1.308818     -0.956205
  C      -4.625512      1.530671     -2.208755
  C       0.163771      1.612339      1.015235
  O      -0.315940      2.717912      1.063643
  O       1.420848      1.339339      0.685148
  C       2.305984      2.413127      0.316641
  C       2.150076      2.708635     -1.156335
  H       3.868597     -3.533782     -0.608662
  H       4.520552     -1.883831     -0.800528
  H       5.324110     -3.039715      0.290862
  H       3.962622     -1.386291      1.609792
  H       3.314628     -3.026972      1.805810
  H      -0.648667     -1.781426      0.845845
  H       0.217200     -0.798587     -0.356755
  H      -0.473029      0.210303      2.451456
  H      -5.080689     -1.073711     -0.416644
  H      -4.499759     -2.620150     -1.094429
  H      -3.849955     -2.037312      0.471184
  H      -3.945896      2.016038     -2.921285
  H      -5.475298      2.190073     -2.003219
  H      -4.986217      0.582623     -2.629908
  H       2.077826      3.292115      0.931982
  H       3.313516      2.054741      0.559738
  H       2.857666      3.495881     -1.451251
  H       1.130645      3.054252     -1.380248
  H       2.357806      1.810818     -1.756206
38
Coordinates from ORCA-job opt E -1980.495972520486
  C       4.304440     -2.560367     -0.143797
  C       3.460500     -2.141858      1.034995
  O       2.172719     -1.750804      0.539853
  C       1.263217     -1.384735      1.430468
  O       1.435231     -1.427795      2.627247
  C      -0.045608     -0.994140      0.784007
  C      -0.589505      0.311233      1.361204
  S      -2.377247      0.546602      1.147236
  P      -2.627473      0.397346     -0.925638
  S      -1.150841      0.872225     -2.074484
  O      -3.119512     -1.104044     -1.252520
  C      -4.158146     -1.737245     -0.500353
  O      -3.961949      1.295882     -0.987710
  C      -4.634305      1.498696     -2.237971
  C       0.189399      1.577660      0.991392
  O      -0.247538      2.698864      1.052733
  O       1.431121      1.261693      0.650428
  C       2.361702      2.310502      0.326646
  C       2.241830      2.688327     -1.131124
  H       3.848035     -3.410853     -0.670026
  H       4.424551     -1.732795     -0.857588
  H       5.301416     -2.864996      0.204125
  H       3.897328     -1.284376      1.570902
  H       3.332347     -2.957777      1.762647
  H      -0.761422     -1.794807      1.024338
  H       0.059309     -0.933376     -0.305727
  H      -0.516866      0.258618      2.463279
  H      -5.061819     -1.113729     -0.468628
  H      -4.388240     -2.676584     -1.015910
  H      -3.817807     -1.956400      0.522173
  H      -3.941751      1.922375     -2.978547
  H      -5.444628      2.210060     -2.045274
  H      -5.052491      0.553996     -2.613448
  H       2.170988      3.167392      0.985631
  H       3.349247      1.892338      0.559540
  H       3.002611      3.443064     -1.376089
  H       1.249858      3.108679     -1.350554
  H       2.401299      1.811130     -1.775295
38
Coordinates from ORCA-job opt E -1980.496073362413
  C       4.321191     -2.547159     -0.153520
  C       3.501654     -2.101801      1.033148
  O       2.190912     -1.757759      0.562370
  C       1.299103     -1.383132      1.467992
  O       1.509507     -1.373752      2.659081
  C      -0.036245     -1.041681      0.847527
  C      -0.585920      0.275287      1.389511
  S      -2.378760      0.490419      1.173687
  P      -2.613198      0.353517     -0.906104
  S      -1.114156      0.793177     -2.040435
  O      -3.138812     -1.131233     -1.242912
  C      -4.246597     -1.712781     -0.549130
  O      -3.923654      1.288068     -0.980622
  C      -4.567208      1.535319     -2.236656
  C       0.181957      1.536243      0.984990
  O      -0.260781      2.655058      1.052257
  O       1.418564      1.227182      0.623676
  C       2.335561      2.286463      0.297475
  C       2.188963      2.701298     -1.148003
  H       3.867961     -3.425582     -0.635145
  H       4.403366     -1.744996     -0.901088
  H       5.333594     -2.818472      0.177007
  H       3.935198     -1.215960      1.523450
  H       3.413733     -2.893609      1.792645
  H      -0.728855     -1.844607      1.142949
  H       0.036696     -1.024802     -0.246519
  H      -0.504983      0.253828      2.491738
  H      -5.126348     -1.055962     -0.591404
  H      -4.476831     -2.654887     -1.059404
  H      -3.982804     -1.921648      0.497879
  H      -3.852357      1.966879     -2.951411
  H      -5.368262      2.256186     -2.039574
  H      -4.995922      0.608695     -2.644740
  H       2.158696      3.126714      0.982166
  H       3.328713      1.864728      0.499331
  H       2.952657      3.454294     -1.389310
  H       1.197609      3.137271     -1.337556
  H       2.326057      1.839197     -1.817187
38
Coordinates from ORCA-job opt E -1980.495605392178
  C       4.116729     -2.494384     -0.264036
  C       3.303249     -2.105475      0.946337
  O       2.013517     -1.672452      0.494265
  C       1.112950     -1.377745      1.420991
  O       1.287982     -1.533507      2.608032
  C      -0.194744     -0.910767      0.823193
  C      -0.623719      0.439828      1.393104
  S      -2.379703      0.837350      1.122873
  P      -2.576690      0.480238     -0.929025
  S      -1.153220      1.055384     -2.100897
  O      -2.857687     -1.090833     -1.159000
  C      -3.892081     -1.771965     -0.443608
  O      -4.018630      1.191266     -1.039669
  C      -4.691718      1.282800     -2.301276
  C       0.265812      1.634485      1.039549
  O      -0.064459      2.787423      1.168144
  O       1.458694      1.219089      0.641681
  C       2.485665      2.187017      0.368398
  C       2.360136      2.721770     -1.038033
  H       3.632496     -3.314492     -0.813151
  H       4.238684     -1.644648     -0.950723
  H       5.113295     -2.831843      0.052570
  H       3.765307     -1.275070      1.503647
  H       3.178542     -2.946531      1.644699
  H      -0.951701     -1.650887      1.122992
  H      -0.133934     -0.876372     -0.271530
  H      -0.575407      0.387557      2.496178
  H      -4.874341     -1.331770     -0.658472
  H      -3.883938     -2.809676     -0.795493
  H      -3.699685     -1.757737      0.638759
  H      -4.018779      1.704766     -3.060368
  H      -5.540371      1.959610     -2.153317
  H      -5.056804      0.296787     -2.621522
  H       2.420791      2.988802      1.115587
  H       3.426949      1.640554      0.511205
  H       3.209870      3.385391     -1.250316
  H       1.430573      3.295384     -1.163927
  H       2.366372      1.900654     -1.769683
38
Coordinates from ORCA-job opt E -1980.495851818127
  C       4.178282     -2.774643     -0.119263
  C       3.351947     -2.281883      1.042251
  O       2.105308     -1.794441      0.529346
  C       1.215888     -1.361608      1.411059
  O       1.383599     -1.392600      2.609111
  C      -0.070586     -0.919808      0.754408
  C      -0.579007      0.390446      1.352703
  S      -2.363402      0.679117      1.119617
  P      -2.596144      0.446563     -0.942454
  S      -1.153633      1.016057     -2.093453
  O      -2.916109     -1.114770     -1.196675
  C      -3.886664     -1.813256     -0.412352
  O      -4.008505      1.206986     -1.040802
  C      -4.629276      1.448418     -2.311983
  C       0.237451      1.641018      1.020230
  O      -0.139592      2.773017      1.204558
  O       1.425505      1.297435      0.550084
  C       2.387679      2.324064      0.250814
  C       2.097043      2.953194     -1.090026
  H       3.667641     -3.593371     -0.646051
  H       4.372000     -1.966923     -0.838758
  H       5.143265     -3.149712      0.248673
  H       3.845237     -1.453564      1.576598
  H       3.153163     -3.076619      1.776326
  H      -0.811865     -1.704647      0.963630
  H       0.062230     -0.841643     -0.331078
  H      -0.508654      0.316134      2.453670
  H      -4.872262     -1.341405     -0.487759
  H      -3.946305     -2.827829     -0.821518
  H      -3.572417     -1.866683      0.641318
  H      -3.957918      2.026254     -2.960455
  H      -5.534963      2.031067     -2.111083
  H      -4.902000      0.501413     -2.798503
  H       2.371336      3.066949      1.058997
  H       3.355665      1.807377      0.255648
  H       2.900756      3.659869     -1.338918
  H       1.145091      3.502769     -1.071793
  H       2.050216      2.187258     -1.877956
38
Coordinates from ORCA-job opt E -1980.496104226610
  C       4.331371     -2.571926     -0.135733
  C       3.519301     -2.102904      1.046912
  O       2.201390     -1.779163      0.580630
  C       1.313589     -1.397724      1.487111
  O       1.535120     -1.364106      2.675388
  C      -0.027614     -1.066722      0.872199
  C      -0.576718      0.255417      1.402078
  S      -2.370692      0.479502      1.181737
  P      -2.610177      0.337447     -0.899124
  S      -1.111992      0.783462     -2.032286
  O      -3.129754     -1.150289     -1.229262
  C      -4.270925     -1.715080     -0.575170
  O      -3.920501      1.269912     -0.973962
  C      -4.527099      1.584754     -2.232965
  C       0.192787      1.514890      0.996130
  O      -0.238979      2.634445      1.103997
  O       1.414568      1.208583      0.589646
  C       2.323122      2.272641      0.251741
  C       2.117856      2.741397     -1.170730
  H       3.882139     -3.466751     -0.590627
  H       4.399973     -1.788471     -0.904589
  H       5.349057     -2.825318      0.193422
  H       3.951803     -1.202681      1.511078
  H       3.443522     -2.876930      1.826126
  H      -0.714391     -1.868140      1.184777
  H       0.040048     -1.066957     -0.222342
  H      -0.497377      0.240855      2.504369
  H      -5.156824     -1.079147     -0.715053
  H      -4.449595     -2.691273     -1.040531
  H      -4.073162     -1.854880      0.497366
  H      -3.794046      2.058869     -2.901282
  H      -5.338221      2.289399     -2.019053
  H      -4.938861      0.680392     -2.703663
  H       2.187199      3.089408      0.974001
  H       3.320129      1.835228      0.391723
  H       2.887433      3.486026     -1.420807
  H       1.129788      3.204914     -1.300291
  H       2.206732      1.900921     -1.874801
38
Coordinates from ORCA-job opt E -1980.496400457169
  C       4.246574     -2.653988     -0.143693
  C       3.432943     -2.176331      1.034051
  O       2.143228     -1.775310      0.550968
  C       1.255625     -1.376685      1.450509
  O       1.453008     -1.387209      2.643943
  C      -0.060693     -0.983414      0.820175
  C      -0.577140      0.336689      1.385084
  S      -2.363300      0.608471      1.159350
  P      -2.598161      0.398605     -0.911544
  S      -1.133318      0.917391     -2.057864
  O      -3.007377     -1.133661     -1.201056
  C      -4.094957     -1.762649     -0.516890
  O      -3.971814      1.231178     -0.999137
  C      -4.601366      1.482858     -2.261694
  C       0.226607      1.584690      1.011715
  O      -0.169370      2.714642      1.154675
  O       1.431935      1.248092      0.579082
  C       2.378530      2.285718      0.266631
  C       2.148019      2.831847     -1.122897
  H       3.765408     -3.514328     -0.630725
  H       4.368734     -1.856411     -0.890525
  H       5.243630     -2.964230      0.198910
  H       3.897541     -1.309398      1.530073
  H       3.303942     -2.963751      1.792032
  H      -0.779098     -1.772909      1.088183
  H       0.031314     -0.944588     -0.271950
  H      -0.503420      0.293318      2.487103
  H      -5.033896     -1.220513     -0.690271
  H      -4.182537     -2.773450     -0.931037
  H      -3.891147     -1.829990      0.561757
  H      -3.905933      1.998678     -2.938146
  H      -5.460705      2.130615     -2.056650
  H      -4.947987      0.544454     -2.717531
  H       2.301389      3.071028      1.030474
  H       3.358577      1.798944      0.351664
  H       2.943426      3.550981     -1.364793
  H       1.179702      3.347199     -1.193499
  H       2.172088      2.023417     -1.868316
38
Coordinates from ORCA-job opt E -1980.496452942856
  C       4.205426     -2.684838     -0.150715
  C       3.387705     -2.211290      1.025768
  O       2.114089     -1.770697      0.534950
  C       1.223322     -1.373000      1.431798
  O       1.405361     -1.412139      2.627110
  C      -0.078514     -0.944953      0.794311
  C      -0.578425      0.373603      1.377071
  S      -2.359900      0.669718      1.147620
  P      -2.590832      0.430854     -0.918697
  S      -1.145361      0.987781     -2.072053
  O      -2.945171     -1.118700     -1.191756
  C      -4.003668     -1.777367     -0.490763
  O      -3.993682      1.212220     -1.006868
  C      -4.640123      1.429814     -2.267246
  C       0.241062      1.616244      1.020252
  O      -0.141570      2.749273      1.176234
  O       1.441646      1.269677      0.582122
  C       2.399735      2.299048      0.278720
  C       2.173894      2.859987     -1.105322
  H       3.710243     -3.522968     -0.661741
  H       4.357141     -1.875999     -0.879709
  H       5.189749     -3.026530      0.198525
  H       3.865619     -1.365224      1.544732
  H       3.231097     -3.009989      1.766508
  H      -0.813445     -1.726440      1.039850
  H       0.025899     -0.886437     -0.295958
  H      -0.509067      0.316488      2.478739
  H      -4.967226     -1.290295     -0.687534
  H      -4.037910     -2.804887     -0.869997
  H      -3.804116     -1.798078      0.590804
  H      -3.967524      1.961735     -2.953941
  H      -5.518855      2.050932     -2.062088
  H      -4.959629      0.475886     -2.710457
  H       2.331316      3.078466      1.049346
  H       3.374637      1.801236      0.358363
  H       2.977096      3.572225     -1.341343
  H       1.211410      3.386740     -1.170643
  H       2.188570      2.057904     -1.857830
38
Coordinates from ORCA-job opt E -1980.496510412197
  C       4.209291     -2.687327     -0.147532
  C       3.392189     -2.210162      1.027912
  O       2.117873     -1.771746      0.536665
  C       1.228012     -1.371607      1.433195
  O       1.412496     -1.404312      2.628204
  C      -0.075694     -0.948567      0.796258
  C      -0.577993      0.369531      1.377456
  S      -2.360191      0.662805      1.149357
  P      -2.591124      0.430169     -0.918114
  S      -1.145182      0.989892     -2.069430
  O      -2.946196     -1.118314     -1.194857
  C      -4.008612     -1.775823     -0.498484
  O      -3.993399      1.212577     -1.003151
  C      -4.641274      1.437098     -2.261449
  C       0.239983      1.612191      1.018258
  O      -0.144074      2.744862      1.172729
  O       1.440515      1.266746      0.579305
  C       2.395995      2.298554      0.275967
  C       2.171024      2.857915     -1.108792
  H       3.713904     -3.527055     -0.655819
  H       4.360890     -1.880827     -0.879183
  H       5.193669     -3.028065      0.202568
  H       3.870411     -1.362471      1.543920
  H       3.236312     -3.006727      1.771125
  H      -0.807868     -1.732153      1.043463
  H       0.027500     -0.891657     -0.294204
  H      -0.507816      0.314470      2.479171
  H      -4.973195     -1.299760     -0.715729
  H      -4.028590     -2.809363     -0.861998
  H      -3.823796     -1.778254      0.586042
  H      -3.970972      1.976492     -2.944597
  H      -5.522114      2.053508     -2.050977
  H      -4.958186      0.485395     -2.711381
  H       2.323870      3.078430      1.045830
  H       3.372341      1.803856      0.357499
  H       2.972461      3.572767     -1.343033
  H       1.206879      3.381324     -1.177031
  H       2.190658      2.055607     -1.861004
38
Coordinates from ORCA-job opt E -1980.496875817327
  C       4.212279     -2.723998     -0.135726
  C       3.405959     -2.214651      1.033622
  O       2.128825     -1.783115      0.541829
  C       1.248286     -1.359249      1.436347
  O       1.446657     -1.355967      2.629233
  C      -0.062143     -0.952768      0.802195
  C      -0.574555      0.361546      1.381663
  S      -2.359704      0.644234      1.163524
  P      -2.592216      0.433378     -0.908614
  S      -1.154844      1.029203     -2.051521
  O      -2.926986     -1.115996     -1.202375
  C      -4.012901     -1.779174     -0.546911
  O      -4.003045      1.198931     -0.975608
  C      -4.656735      1.464899     -2.222015
  C       0.236233      1.605337      1.012322
  O      -0.153414      2.736242      1.162532
  O       1.438679      1.266488      0.572356
  C       2.379970      2.311592      0.268137
  C       2.166808      2.850509     -1.126652
  H       3.708879     -3.572432     -0.621546
  H       4.365490     -1.936168     -0.887369
  H       5.196099     -3.063357      0.217718
  H       3.893031     -1.358425      1.526422
  H       3.251545     -2.993654      1.795711
  H      -0.782990     -1.747194      1.049261
  H       0.037690     -0.897448     -0.288656
  H      -0.499332      0.312261      2.483144
  H      -4.976154     -1.411904     -0.923475
  H      -3.914737     -2.845965     -0.777268
  H      -3.956509     -1.641610      0.543442
  H      -4.008976      2.071720     -2.869731
  H      -5.564905      2.028274     -1.980549
  H      -4.932094      0.527520     -2.726413
  H       2.280505      3.099669      1.026587
  H       3.364614      1.837471      0.370083
  H       2.955633      3.582568     -1.351588
  H       1.191729      3.349138     -1.221348
  H       2.223327      2.042091     -1.870603
38
Coordinates from ORCA-job opt E -1980.497022158980
  C       4.195968     -2.747703     -0.140301
  C       3.399083     -2.223213      1.028862
  O       2.121343     -1.789057      0.540337
  C       1.250143     -1.347712      1.435536
  O       1.459193     -1.324788      2.626294
  C      -0.062973     -0.943900      0.805377
  C      -0.575669      0.369402      1.386596
  S      -2.361239      0.653549      1.172209
  P      -2.593006      0.443067     -0.901244
  S      -1.166447      1.067591     -2.041798
  O      -2.899194     -1.111477     -1.198032
  C      -3.989472     -1.788502     -0.563661
  O      -4.016441      1.183425     -0.964526
  C      -4.668404      1.465135     -2.208013
  C       0.235906      1.611891      1.014462
  O      -0.150978      2.743329      1.165765
  O       1.438102      1.271858      0.573278
  C       2.379168      2.317860      0.269860
  C       2.174107      2.849838     -1.129184
  H       3.684966     -3.597170     -0.616390
  H       4.350659     -1.967203     -0.899330
  H       5.179303     -3.090376      0.211442
  H       3.894066     -1.365754      1.511403
  H       3.244219     -2.994850      1.798354
  H      -0.780720     -1.741824      1.050637
  H       0.035190     -0.887847     -0.285649
  H      -0.497433      0.319255      2.487692
  H      -4.940788     -1.514220     -1.037905
  H      -3.811519     -2.862113     -0.692845
  H      -4.023739     -1.559955      0.512398
  H      -4.037941      2.117622     -2.827977
  H      -5.600306      1.984467     -1.958292
  H      -4.901524      0.535552     -2.746926
  H       2.272793      3.109485      1.023685
  H       3.364353      1.846833      0.380401
  H       2.959716      3.586781     -1.350041
  H       1.196409      3.341203     -1.234330
  H       2.243106      2.039519     -1.869982
38
Coordinates from ORCA-job opt E -1980.497220634900
  C       4.161520     -2.768916     -0.158870
  C       3.375714     -2.238126      1.015064
  O       2.097744     -1.796616      0.533605
  C       1.240580     -1.332406      1.430834
  O       1.462830     -1.291598      2.618747
  C      -0.073285     -0.922660      0.806397
  C      -0.579877      0.391115      1.392603
  S      -2.363710      0.687371      1.179278
  P      -2.594899      0.469111     -0.894464
  S      -1.187394      1.130781     -2.037237
  O      -2.858894     -1.092905     -1.191645
  C      -3.937694     -1.799493     -0.569355
  O      -4.036914      1.171260     -0.957972
  C      -4.691562      1.439777     -2.202845
  C       0.239179      1.630232      1.023923
  O      -0.137889      2.764081      1.178656
  O       1.440515      1.282789      0.584242
  C       2.390996      2.321366      0.283842
  C       2.198904      2.846495     -1.120236
  H       3.642319     -3.615708     -0.630783
  H       4.315938     -1.989166     -0.918746
  H       5.145292     -3.117072      0.186288
  H       3.879004     -1.383131      1.493218
  H       3.220313     -3.007857      1.786392
  H      -0.792959     -1.720127      1.047829
  H       0.024382     -0.864676     -0.284610
  H      -0.499591      0.333393      2.493073
  H      -4.865366     -1.649428     -1.137101
  H      -3.667762     -2.861835     -0.579794
  H      -4.076446     -1.478817      0.473969
  H      -4.084679      2.126441     -2.809493
  H      -5.648318      1.912985     -1.956122
  H      -4.874558      0.508261     -2.757407
  H       2.284479      3.117965      1.032395
  H       3.371995      1.844258      0.404749
  H       2.984372      3.584488     -1.338495
  H       1.220863      3.335186     -1.234857
  H       2.274858      2.033183     -1.856914
38
Coordinates from ORCA-job opt E -1980.497384869490
  C       4.120433     -2.779144     -0.184794
  C       3.343201     -2.253363      0.997191
  O       2.063609     -1.806557      0.524865
  C       1.222605     -1.318487      1.424747
  O       1.460787     -1.259307      2.608889
  C      -0.092480     -0.901879      0.807670
  C      -0.590051      0.413508      1.398367
  S      -2.371482      0.722902      1.184013
  P      -2.595468      0.496784     -0.889564
  S      -1.199664      1.183790     -2.031572
  O      -2.825710     -1.069998     -1.187035
  C      -3.870384     -1.814143     -0.550146
  O      -4.050182      1.171651     -0.962544
  C      -4.697698      1.414471     -2.216790
  C       0.238622      1.648269      1.034526
  O      -0.126096      2.785084      1.194124
  O       1.438075      1.291352      0.596056
  C       2.401558      2.318765      0.298977
  C       2.217865      2.844795     -1.106601
  H       3.597132     -3.622910     -0.657452
  H       4.269897     -1.994001     -0.940098
  H       5.106827     -3.129460      0.150555
  H       3.850700     -1.401770      1.476748
  H       3.189848     -3.026544      1.765574
  H      -0.815991     -1.696055      1.048822
  H       0.003134     -0.844478     -0.283721
  H      -0.507675      0.345948      2.498038
  H      -4.787516     -1.756773     -1.151329
  H      -3.531785     -2.855527     -0.494406
  H      -4.063037     -1.449569      0.469318
  H      -4.104202      2.116412     -2.819414
  H      -5.672828      1.856390     -1.985517
  H      -4.838367      0.475602     -2.771349
  H       2.303753      3.117090      1.047050
  H       3.375726      1.828856      0.423427
  H       3.005971      3.579822     -1.325338
  H       1.241880      3.337764     -1.220446
  H       2.288997      2.030710     -1.842682
38
Coordinates from ORCA-job opt E -1980.497500077618
  C       4.084783     -2.793882     -0.198226
  C       3.308059     -2.279630      0.989186
  O       2.032325     -1.819324      0.519090
  C       1.203032     -1.310544      1.418201
  O       1.447419     -1.245365      2.600855
  C      -0.107543     -0.878788      0.802042
  C      -0.592504      0.438978      1.398256
  S      -2.371240      0.764887      1.185980
  P      -2.593760      0.530085     -0.885555
  S      -1.216509      1.245495     -2.032961
  O      -2.790179     -1.040145     -1.184239
  C      -3.804483     -1.820186     -0.541974
  O      -4.062351      1.175718     -0.960153
  C      -4.715187      1.371867     -2.220501
  C       0.246805      1.668351      1.040199
  O      -0.105369      2.807737      1.208712
  O       1.442224      1.302550      0.598169
  C       2.417215      2.320085      0.306302
  C       2.234697      2.858913     -1.094769
  H       3.558466     -3.629250     -0.682174
  H       4.238140     -1.998490     -0.941927
  H       5.069778     -3.152081      0.132823
  H       3.818848     -1.437398      1.481409
  H       3.147440     -3.061576      1.747285
  H      -0.840297     -1.665572      1.039807
  H      -0.009361     -0.820521     -0.289152
  H      -0.507707      0.361714      2.497088
  H      -4.713385     -1.820563     -1.158495
  H      -3.418263     -2.843013     -0.457141
  H      -4.031813     -1.441814      0.464913
  H      -4.138913      2.072891     -2.840718
  H      -5.701627      1.793435     -2.000048
  H      -4.828583      0.416134     -2.752417
  H       2.332292      3.113730      1.061080
  H       3.384854      1.815981      0.424983
  H       3.027141      3.589215     -1.312932
  H       1.262233      3.361134     -1.198145
  H       2.293325      2.049240     -1.836694
38
Coordinates from ORCA-job opt E -1980.497602482000
  C       4.080493     -2.788986     -0.199023
  C       3.301113     -2.289304      0.992929
  O       2.021349     -1.835885      0.526509
  C       1.201543     -1.309027      1.424001
  O       1.456776     -1.224218      2.603155
  C      -0.111857     -0.881305      0.810720
  C      -0.594175      0.439304      1.403369
  S      -2.373439      0.764986      1.194129
  P      -2.594385      0.549834     -0.878607
  S      -1.219102      1.278576     -2.020795
  O      -2.789273     -1.015641     -1.195392
  C      -3.784401     -1.819183     -0.553207
  O      -4.063544      1.197835     -0.952152
  C      -4.713643      1.371350     -2.218085
  C       0.245920      1.666936      1.041936
  O      -0.104081      2.806960      1.211093
  O       1.440618      1.299655      0.599345
  C       2.414360      2.316087      0.300413
  C       2.228238      2.849067     -1.102551
  H       3.560949     -3.626070     -0.687236
  H       4.224455     -1.986488     -0.936956
  H       5.069903     -3.139522      0.126952
  H       3.805835     -1.446951      1.490905
  H       3.146210     -3.077627      1.745729
  H      -0.844385     -1.665784      1.056681
  H      -0.017356     -0.831670     -0.281217
  H      -0.505778      0.361957      2.501900
  H      -4.699517     -1.823009     -1.160597
  H      -3.384209     -2.837982     -0.486743
  H      -4.007815     -1.456152      0.460170
  H      -4.137773      2.063566     -2.848493
  H      -5.702072      1.792954     -2.006828
  H      -4.821607      0.406413     -2.734551
  H       2.331639      3.112732      1.052454
  H       3.381947      1.811974      0.419787
  H       3.017280      3.580981     -1.327013
  H       1.253863      3.347918     -1.204082
  H       2.285923      2.035720     -1.840488
38
Coordinates from ORCA-job opt E -1980.497707325092
  C       4.074891     -2.794832     -0.188469
  C       3.290558     -2.301961      1.002992
  O       2.011055     -1.849094      0.534337
  C       1.195485     -1.309806      1.428117
  O       1.454039     -1.213374      2.605495
  C      -0.117154     -0.880967      0.813498
  C      -0.593749      0.443046      1.402980
  S      -2.372350      0.775753      1.195090
  P      -2.590339      0.566415     -0.876733
  S      -1.222516      1.313597     -2.016874
  O      -2.772749     -0.997318     -1.202794
  C      -3.754562     -1.820133     -0.565764
  O      -4.064807      1.206248     -0.944774
  C      -4.718564      1.363943     -2.211766
  C       0.252008      1.665214      1.039187
  O      -0.090034      2.806202      1.218600
  O       1.439752      1.293440      0.583563
  C       2.414903      2.308357      0.284040
  C       2.214840      2.863194     -1.108360
  H       3.558832     -3.631194     -0.681752
  H       4.219057     -1.988909     -0.922688
  H       5.064186     -3.144243      0.139135
  H       3.792382     -1.461713      1.507186
  H       3.133918     -3.094111      1.751535
  H      -0.852135     -1.661637      1.064471
  H      -0.023207     -0.836796     -0.278650
  H      -0.504750      0.368027      2.501537
  H      -4.682975     -1.807079     -1.152390
  H      -3.352739     -2.839805     -0.537692
  H      -3.956813     -1.484525      0.461704
  H      -4.144957      2.048932     -2.852019
  H      -5.706065      1.788610     -2.001629
  H      -4.830582      0.392359     -2.714703
  H       2.346652      3.094436      1.048771
  H       3.380859      1.796894      0.383882
  H       3.008481      3.590028     -1.333105
  H       1.244571      3.373544     -1.190022
  H       2.254579      2.059258     -1.857776
38
Coordinates from ORCA-job opt E -1980.497885772085
  C       4.090805     -2.805022     -0.160789
  C       3.300999     -2.309613      1.025893
  O       2.019691     -1.866328      0.551844
  C       1.207378     -1.308333      1.437033
  O       1.471099     -1.184104      2.610487
  C      -0.107604     -0.891451      0.818503
  C      -0.589718      0.433180      1.401578
  S      -2.370623      0.758182      1.194793
  P      -2.590229      0.572050     -0.876807
  S      -1.224226      1.332459     -2.011688
  O      -2.778136     -0.985725     -1.221137
  C      -3.758880     -1.818232     -0.596995
  O      -4.064505      1.218686     -0.932792
  C      -4.723529      1.376348     -2.197966
  C       0.254012      1.653968      1.031502
  O      -0.089517      2.794053      1.215109
  O       1.438749      1.284736      0.567121
  C       2.405057      2.307066      0.261821
  C       2.190138      2.873394     -1.123609
  H       3.579900     -3.646431     -0.651103
  H       4.233235     -2.003010     -0.899693
  H       5.080556     -3.148392      0.171854
  H       3.798418     -1.465716      1.527978
  H       3.145648     -3.099394      1.777339
  H      -0.837547     -1.675349      1.074197
  H      -0.013443     -0.852514     -0.273682
  H      -0.502095      0.366950      2.500593
  H      -4.726916     -1.705582     -1.103836
  H      -3.410392     -2.852412     -0.696774
  H      -3.866795     -1.571616      0.469697
  H      -4.142818      2.046492     -2.847340
  H      -5.701377      1.821680     -1.984126
  H      -4.861805      0.402178     -2.688805
  H       2.341232      3.086346      1.034033
  H       3.374826      1.800213      0.346677
  H       2.985930      3.597461     -1.350114
  H       1.222087      3.389303     -1.193726
  H       2.220394      2.074477     -1.878909
38
Coordinates from ORCA-job opt E -1980.498013975423
  C       4.070352     -2.841971     -0.143855
  C       3.283261     -2.327248      1.036317
  O       2.006412     -1.876736      0.556376
  C       1.200113     -1.299640      1.434549
  O       1.467000     -1.158723      2.605194
  C      -0.112423     -0.880657      0.811852
  C      -0.592200      0.444895      1.393984
  S      -2.371923      0.778219      1.182900
  P      -2.590445      0.583727     -0.886842
  S      -1.246802      1.379038     -2.024841
  O      -2.739850     -0.978338     -1.227861
  C      -3.698026     -1.831457     -0.597438
  O      -4.081311      1.193891     -0.933550
  C      -4.744070      1.364620     -2.195180
  C       0.258873      1.660441      1.024872
  O      -0.075321      2.800964      1.222544
  O       1.436252      1.287584      0.545602
  C       2.406015      2.310125      0.249549
  C       2.184353      2.909195     -1.120896
  H       3.551435     -3.682077     -0.628208
  H       4.224155     -2.049295     -0.890601
  H       5.054748     -3.194003      0.195699
  H       3.788712     -1.484462      1.532004
  H       3.118901     -3.109217      1.794081
  H      -0.843037     -1.665725      1.062419
  H      -0.013668     -0.839373     -0.279805
  H      -0.509600      0.382461      2.493356
  H      -4.698481     -1.667295     -1.020591
  H      -3.379758     -2.861221     -0.793435
  H      -3.721293     -1.655351      0.488636
  H      -4.171846      2.052417     -2.833490
  H      -5.725974      1.796920     -1.972358
  H      -4.876902      0.396875     -2.699710
  H       2.355471      3.072600      1.039417
  H       3.373225      1.795323      0.312406
  H       2.992712      3.622147     -1.338762
  H       1.226228      3.445111     -1.172846
  H       2.194714      2.126233     -1.893329
38
Coordinates from ORCA-job opt E -1980.498166503520
  C       4.065654     -2.874454     -0.130594
  C       3.288422     -2.333445      1.044442
  O       2.012941     -1.880721      0.563011
  C       1.213695     -1.286392      1.435888
  O       1.489206     -1.123824      2.601584
  C      -0.101317     -0.875079      0.813227
  C      -0.591490      0.445729      1.396872
  S      -2.372755      0.769587      1.185034
  P      -2.592447      0.583453     -0.887185
  S      -1.260980      1.403360     -2.020740
  O      -2.720600     -0.980148     -1.233744
  C      -3.686235     -1.836936     -0.618752
  O      -4.091779      1.170268     -0.928208
  C      -4.756371      1.370205     -2.183757
  C       0.253538      1.666182      1.026491
  O      -0.083473      2.805205      1.224669
  O       1.433309      1.298937      0.547328
  C       2.396705      2.327044      0.248071
  C       2.178667      2.911045     -1.129880
  H       3.536560     -3.716579     -0.600339
  H       4.225620     -2.095170     -0.890167
  H       5.047247     -3.231934      0.211646
  H       3.803316     -1.486910      1.523739
  H       3.121146     -3.102034      1.815221
  H      -0.824808     -1.669547      1.055027
  H       0.000050     -0.827998     -0.278096
  H      -0.510739      0.383875      2.496246
  H      -4.696073     -1.618172     -0.992972
  H      -3.407474     -2.862490     -0.885170
  H      -3.663406     -1.721799      0.475424
  H      -4.189535      2.079469     -2.803376
  H      -5.742069      1.787902     -1.950044
  H      -4.880570      0.415376     -2.714695
  H       2.335370      3.096403      1.030440
  H       3.367803      1.820938      0.320205
  H       2.984509      3.626979     -1.348610
  H       1.217510      3.440069     -1.194623
  H       2.200851      2.121605     -1.895453
38
Coordinates from ORCA-job opt E -1980.498268061261
  C       4.051464     -2.929749     -0.111053
  C       3.289395     -2.345496      1.053323
  O       2.019110     -1.884560      0.566265
  C       1.228013     -1.267107      1.430413
  O       1.511140     -1.081693      2.590870
  C      -0.086975     -0.861422      0.804439
  C      -0.592097      0.451530      1.391814
  S      -2.375732      0.759660      1.181578
  P      -2.600444      0.582084     -0.895053
  S      -1.292702      1.438898     -2.025846
  O      -2.692779     -0.984736     -1.247546
  C      -3.650845     -1.852179     -0.633005
  O      -4.112013      1.129330     -0.927372
  C      -4.782768      1.377036     -2.169594
  C       0.241785      1.681610      1.023445
  O      -0.103058      2.818054      1.219136
  O       1.427406      1.324355      0.548796
  C       2.386100      2.358043      0.253799
  C       2.184948      2.920096     -1.136369
  H       3.504972     -3.772888     -0.558489
  H       4.224133     -2.171688     -0.889132
  H       5.027239     -3.297793      0.236833
  H       3.820012     -1.494819      1.507584
  H       3.113529     -3.091404      1.844191
  H      -0.803563     -1.666934      1.030019
  H       0.021467     -0.805601     -0.286119
  H      -0.511091      0.385938      2.490895
  H      -4.674952     -1.557877     -0.903112
  H      -3.442044     -2.860050     -1.009213
  H      -3.537071     -1.835568      0.461249
  H      -4.227785      2.121092     -2.758785
  H      -5.774526      1.767453     -1.915987
  H      -4.889416      0.445876     -2.744946
  H       2.304133      3.137520      1.024053
  H       3.360512      1.862100      0.348451
  H       2.984802      3.644303     -1.350868
  H       1.217802      3.434646     -1.224888
  H       2.231900      2.121941     -1.891615
38
Coordinates from ORCA-job opt E -1980.498311469926
  C       4.032779     -2.952432     -0.114823
  C       3.280116     -2.353173      1.048106
  O       2.011214     -1.886985      0.562241
  C       1.225574     -1.261901      1.426059
  O       1.512861     -1.073884      2.585141
  C      -0.088923     -0.852923      0.801666
  C      -0.592567      0.459419      1.391502
  S      -2.376440      0.767238      1.184763
  P      -2.599531      0.587611     -0.893335
  S      -1.300730      1.457540     -2.023528
  O      -2.672662     -0.980724     -1.245635
  C      -3.621062     -1.858916     -0.630184
  O      -4.115786      1.117413     -0.927327
  C      -4.786736      1.373419     -2.167363
  C       0.239990      1.690803      1.024962
  O      -0.104221      2.826956      1.223521
  O       1.425323      1.334651      0.548424
  C       2.385489      2.367272      0.256838
  C       2.187364      2.928214     -1.134267
  H       3.478428     -3.795508     -0.552425
  H       4.206750     -2.201171     -0.899123
  H       5.008001     -3.323829      0.230997
  H       3.818252     -1.502071      1.492650
  H       3.102230     -3.090867      1.846116
  H      -0.807057     -1.657264      1.026596
  H       0.019356     -0.797918     -0.289021
  H      -0.507093      0.389027      2.490056
  H      -4.642774     -1.606086     -0.946673
  H      -3.368938     -2.872493     -0.961987
  H      -3.547395     -1.801556      0.465949
  H      -4.245636      2.139343     -2.741342
  H      -5.787845      1.736512     -1.910612
  H      -4.867527      0.451239     -2.761187
  H       2.301189      3.147604      1.026016
  H       3.359182      1.870669      0.355858
  H       2.981135      3.659439     -1.346958
  H       1.216012      3.434771     -1.224012
  H       2.241680      2.130563     -1.889503
38
Coordinates from ORCA-job opt E -1980.498327964890
  C       4.024447     -2.989102     -0.100207
  C       3.279299     -2.367101      1.055626
  O       2.013861     -1.896017      0.564901
  C       1.231766     -1.258924      1.423311
  O       1.519967     -1.063503      2.580994
  C      -0.080372     -0.848781      0.795002
  C      -0.586846      0.461722      1.386375
  S      -2.372688      0.762370      1.186581
  P      -2.599742      0.589512     -0.892321
  S      -1.311545      1.474329     -2.022731
  O      -2.659202     -0.978509     -1.249859
  C      -3.603215     -1.865893     -0.640890
  O      -4.119589      1.105828     -0.921339
  C      -4.792464      1.380563     -2.156228
  C       0.239883      1.696595      1.020578
  O      -0.107379      2.830907      1.225439
  O       1.423999      1.346212      0.537057
  C       2.380441      2.382569      0.248179
  C       2.175391      2.950671     -1.138937
  H       3.461847     -3.833469     -0.524439
  H       4.202764     -2.249732     -0.894717
  H       4.997544     -3.363488      0.248294
  H       3.825515     -1.514679      1.487602
  H       3.095719     -3.091824      1.864091
  H      -0.799306     -1.653116      1.017377
  H       0.031517     -0.794562     -0.295302
  H      -0.495469      0.388640      2.484360
  H      -4.622936     -1.630205     -0.976095
  H      -3.331222     -2.878537     -0.958966
  H      -3.548033     -1.797825      0.455803
  H      -4.267991      2.174371     -2.707279
  H      -5.802281      1.712537     -1.891869
  H      -4.848900      0.473784     -2.776027
  H       2.296083      3.158824      1.021538
  H       3.355719      1.888121      0.342602
  H       2.960984      3.690927     -1.350064
  H       1.198931      3.448747     -1.221133
  H       2.233502      2.158038     -1.899148
38
Coordinates from ORCA-job opt E -1980.498335800735
  C       4.016173     -3.011359     -0.094216
  C       3.279869     -2.370876      1.057279
  O       2.014171     -1.900351      0.566336
  C       1.235634     -1.255157      1.422126
  O       1.526819     -1.052584      2.577821
  C      -0.076538     -0.845879      0.793207
  C      -0.584658      0.463939      1.384957
  S      -2.371478      0.760268      1.187247
  P      -2.599514      0.592207     -0.891631
  S      -1.317568      1.486720     -2.021933
  O      -2.651399     -0.975087     -1.253945
  C      -3.591902     -1.868805     -0.649560
  O      -4.122169      1.100007     -0.917808
  C      -4.796351      1.380836     -2.150698
  C       0.239485      1.700162      1.019633
  O      -0.110925      2.833572      1.224966
  O       1.424030      1.352647      0.535173
  C       2.377798      2.391605      0.247332
  C       2.172217      2.959550     -1.139727
  H       3.447483     -3.858958     -0.503560
  H       4.192356     -2.283209     -0.899473
  H       4.989947     -3.384760      0.253364
  H       3.832191     -1.515478      1.475377
  H       3.096867     -3.084182      1.875886
  H      -0.795075     -1.650275      1.016716
  H       0.035648     -0.792935     -0.297054
  H      -0.491329      0.390480      2.482755
  H      -4.612936     -1.634536     -0.981677
  H      -3.317049     -2.878589     -0.973988
  H      -3.535254     -1.806783      0.447544
  H      -4.283161      2.190027     -2.689786
  H      -5.811475      1.694056     -1.883613
  H      -4.838356      0.481554     -2.782405
  H       2.290465      3.167748      1.020482
  H       3.354551      1.900342      0.343291
  H       2.953285      3.704798     -1.349659
  H       1.192805      3.451791     -1.222450
  H       2.235343      2.167493     -1.900148
38
Coordinates from ORCA-job opt E -1980.498342806297
  C       4.010119     -3.024972     -0.092190
  C       3.281573     -2.370619      1.056534
  O       2.015197     -1.900741      0.566617
  C       1.238259     -1.252946      1.421921
  O       1.531140     -1.047438      2.576607
  C      -0.074543     -0.844648      0.793387
  C      -0.583719      0.465024      1.384991
  S      -2.370820      0.759465      1.186728
  P      -2.598205      0.594513     -0.891653
  S      -1.318054      1.492469     -2.021913
  O      -2.649088     -0.971933     -1.257374
  C      -3.587177     -1.868644     -0.654537
  O      -4.121940      1.100500     -0.916247
  C      -4.797113      1.377772     -2.149612
  C       0.239536      1.701862      1.020431
  O      -0.112165      2.834630      1.227214
  O       1.424152      1.355959      0.535360
  C       2.376211      2.396770      0.248238
  C       2.170104      2.965270     -1.138525
  H       3.436557     -3.875191     -0.489172
  H       4.183289     -2.305817     -0.906143
  H       4.984903     -3.397262      0.253709
  H       3.838878     -1.512993      1.463409
  H       3.100106     -3.075151      1.882976
  H      -0.792547     -1.648997      1.018852
  H       0.036955     -0.792467     -0.296918
  H      -0.490735      0.392003      2.482836
  H      -4.610614     -1.630530     -0.976621
  H      -3.316141     -2.876019     -0.989627
  H      -3.522150     -1.815675      0.442648
  H      -4.289981      2.192254     -2.686368
  H      -5.814901      1.682914     -1.882939
  H      -4.832753      0.478968     -2.782343
  H       2.287361      3.172460      1.021693
  H       3.353981      1.907606      0.344545
  H       2.949312      3.712766     -1.347329
  H       1.189456      3.455021     -1.221631
  H       2.235557      2.173816     -1.899394
38
Coordinates from ORCA-job opt E -1980.498343442949
  C       4.002100     -3.040263     -0.091233
  C       3.282815     -2.369505      1.053936
  O       2.016385     -1.898707      0.565115
  C       1.241039     -1.249302      1.420559
  O       1.535944     -1.041551      2.574276
  C      -0.072885     -0.842523      0.793300
  C      -0.583618      0.466348      1.385355
  S      -2.370822      0.759282      1.185989
  P      -2.596905      0.596257     -0.892178
  S      -1.318241      1.497417     -2.021817
  O      -2.645730     -0.969737     -1.260106
  C      -3.580873     -1.869100     -0.656927
  O      -4.121676      1.100025     -0.915990
  C      -4.797497      1.373884     -2.149835
  C       0.238759      1.704247      1.022009
  O      -0.113590      2.836380      1.230842
  O       1.423275      1.359983      0.535655
  C       2.374576      2.402088      0.250213
  C       2.168618      2.972039     -1.136023
  H       3.422243     -3.892476     -0.474635
  H       4.173447     -2.331514     -0.914642
  H       4.977244     -3.412791      0.253380
  H       3.846555     -1.510075      1.448121
  H       3.102259     -3.063751      1.889176
  H      -0.789571     -1.647886      1.019463
  H       0.037684     -0.789822     -0.297082
  H      -0.491528      0.393138      2.483251
  H      -4.606327     -1.629429     -0.971569
  H      -3.311807     -2.874795     -0.998789
  H      -3.509568     -1.821724      0.440114
  H      -4.296974      2.194591     -2.683271
  H      -5.818574      1.669093     -1.884379
  H      -4.824549      0.476233     -2.784651
  H       2.284741      3.176818      1.024512
  H       3.352819      1.913871      0.346451
  H       2.947050      3.720900     -1.342997
  H       1.187395      3.460589     -1.219467
  H       2.235790      2.181765     -1.897966
38
Coordinates from ORCA-job opt E -1980.498345132006
  C       3.996316     -3.052248     -0.091437
  C       3.286037     -2.365629      1.049996
  O       2.018983     -1.894994      0.562803
  C       1.244130     -1.246557      1.419379
  O       1.540576     -1.038140      2.572560
  C      -0.071334     -0.841905      0.794023
  C      -0.583692      0.466068      1.386462
  S      -2.370951      0.757724      1.185706
  P      -2.595668      0.596211     -0.892528
  S      -1.315484      1.496594     -2.021012
  O      -2.646398     -0.969368     -1.261928
  C      -3.580685     -1.868853     -0.657488
  O      -4.119944      1.102322     -0.916690
  C      -4.795272      1.370958     -2.151953
  C       0.237594      1.705227      1.023973
  O      -0.115312      2.836774      1.234676
  O       1.422027      1.362666      0.536250
  C       2.372810      2.405846      0.252631
  C       2.166754      2.978015     -1.132693
  H       3.411044     -3.906948     -0.460896
  H       4.165107     -2.354130     -0.924374
  H       4.972182     -3.424091      0.251888
  H       3.855575     -1.503932      1.430882
  H       3.107509     -3.049339      1.894235
  H      -0.786212     -1.648760      1.020627
  H       0.037874     -0.788350     -0.296492
  H      -0.492777      0.392828      2.484435
  H      -4.607073     -1.626704     -0.967245
  H      -3.314614     -2.874034     -1.003231
  H      -3.505077     -1.824764      0.439364
  H      -4.297906      2.193708     -2.685201
  H      -5.818485      1.661138     -1.889126
  H      -4.816875      0.472448     -2.785812
  H       2.282598      3.179133      1.028313
  H       3.351271      1.917879      0.347891
  H       2.945428      3.727171     -1.337908
  H       1.185621      3.466788     -1.215766
  H       2.234323      2.189250     -1.896153
38
Coordinates from ORCA-job opt E -1980.498349533219
  C       3.993543     -3.058149     -0.091252
  C       3.287098     -2.364089      1.048038
  O       2.020008     -1.893208      0.561226
  C       1.245276     -1.245252      1.418282
  O       1.542220     -1.036901      2.571365
  C      -0.070691     -0.841186      0.793717
  C      -0.583601      0.466074      1.386951
  S      -2.370944      0.757388      1.186121
  P      -2.595298      0.595968     -0.892400
  S      -1.314736      1.496412     -2.020110
  O      -2.645794     -0.969605     -1.261915
  C      -3.580070     -1.869179     -0.657259
  O      -4.119397      1.102425     -0.917002
  C      -4.794265      1.369849     -2.152735
  C       0.237146      1.705842      1.025028
  O      -0.115734      2.837146      1.237075
  O       1.421346      1.364031      0.536157
  C       2.372050      2.407489      0.253394
  C       2.165607      2.981299     -1.131174
  H       3.405964     -3.913901     -0.454578
  H       4.161821     -2.365017     -0.928421
  H       4.969487     -3.429834      0.252036
  H       3.859331     -1.501465      1.422839
  H       3.109128     -3.042729      1.896427
  H      -0.784832     -1.648940      1.019432
  H       0.038222     -0.786666     -0.296812
  H      -0.492855      0.392277      2.484891
  H      -4.606069     -1.628082     -0.969054
  H      -3.312757     -2.874645     -1.001159
  H      -3.506231     -1.823580      0.439622
  H      -4.298141      2.193732     -2.685417
  H      -5.818433      1.657466     -1.890907
  H      -4.812969      0.471627     -2.787136
  H       2.282110      3.179807      1.030066
  H       3.350434      1.919149      0.347570
  H       2.944682      3.730217     -1.335787
  H       1.184739      3.470742     -1.213305
  H       2.232600      2.193485     -1.895656
38
Coordinates from ORCA-job opt E -1980.498350623679
  C       3.993577     -3.059238     -0.091422
  C       3.288316     -2.362560      1.046975
  O       2.020868     -1.892345      0.560447
  C       1.245830     -1.245206      1.417879
  O       1.542805     -1.037176      2.571029
  C      -0.070422     -0.841511      0.793717
  C      -0.583501      0.465477      1.387294
  S      -2.370966      0.756485      1.186656
  P      -2.595355      0.595245     -0.892138
  S      -1.313666      1.494591     -2.019238
  O      -2.647095     -0.970269     -1.261608
  C      -3.582181     -1.869107     -0.656883
  O      -4.118878      1.103281     -0.917264
  C      -4.793126      1.370038     -2.153471
  C       0.236858      1.705517      1.025437
  O      -0.116400      2.836732      1.237436
  O       1.421213      1.364133      0.536621
  C       2.371641      2.407842      0.254005
  C       2.165120      2.981898     -1.130422
  H       3.405743     -3.915900     -0.452182
  H       4.161197     -2.368131     -0.930381
  H       4.969831     -3.430129      0.251862
  H       3.861188     -1.499184      1.419108
  H       3.111090     -3.039122      1.897145
  H      -0.784225     -1.649677      1.018998
  H       0.038286     -0.786683     -0.296829
  H      -0.492686      0.391510      2.485215
  H      -4.607709     -1.627564     -0.969813
  H      -3.315139     -2.874915     -0.999912
  H      -3.509157     -1.822796      0.440015
  H      -4.295581      2.192231     -2.687454
  H      -5.816892      1.659512     -1.892195
  H      -4.812848      0.471090     -2.786827
  H       2.281474      3.179955      1.030852
  H       3.350091      1.919587      0.347962
  H       2.944486      3.730484     -1.335129
  H       1.184443      3.471752     -1.212319
  H       2.231777      2.194155     -1.895006
