32
Parathion achiral q=0
C     -1.13987225    -3.64463397     0.50688275
C     -1.42129653    -2.51630723     1.47768301
O     -1.82377374    -1.37504632     0.73822218
P     -1.70719711     0.08101085     1.43852292
S     -2.69534263     0.30387190     3.09164151
O     -2.14707434     1.05093151     0.21791828
C     -2.08372351     2.45440528     0.41160508
C     -2.04224177     3.12652939    -0.94534088
O     -0.11178279     0.31637663     1.54460345
C      0.82019858     0.22724018     0.54988974
C      0.54317565    -0.09442071    -0.77776336
C      1.57946798    -0.15760423    -1.71628512
C      2.89620572     0.10363373    -1.31640842
N      3.98456863     0.03776475    -2.29980876
O      3.68885778    -0.25211019    -3.46765838
O      5.13412361     0.27600126    -1.90328585
C      3.18031553     0.42707427     0.01514019
C      2.13696884     0.48691623     0.94246437
H     -0.83592131    -4.55047752     1.03874994
H     -0.34574671    -3.36236284    -0.19224817
H     -2.02796095    -3.86809026    -0.09344970
H     -0.52315807    -2.29523644     2.06293204
H     -2.22746620    -2.80199890     2.15992661
H     -2.97121681     2.77896262     0.96297090
H     -1.19163178     2.72086214     0.98711742
H     -2.00398715     4.21441064    -0.84107101
H     -2.92440512     2.85860769    -1.53613567
H     -1.16633915     2.79515603    -1.51286431
H     -0.46708833    -0.30239434    -1.11972113
H      1.34189486    -0.41057750    -2.74818663
H      4.19657038     0.63325851     0.34503268
H      2.35487873     0.73824685     1.97892434
