41
Coordinates from ORCA-job opt E -1527.698891068063
  C          -3.76535001834959     -4.28675604962780      0.17683273580717
  C          -2.46733830638707     -3.52173948835401      0.27154188756591
  O          -2.72100276898536     -2.14332721019565     -0.05690017440100
  P          -1.73184744012183     -0.99379912713633      0.44444263535417
  O          -1.60107173238186     -0.81405080510608      1.91490684043389
  N          -2.21848267096993      0.33764824879955     -0.36382504829840
  C          -2.25674993370255      1.69206077804330      0.19981533196985
  C          -1.13554535066821      2.55894406831416     -0.36882947899362
  C          -3.63372819355740      2.31221831109694     -0.01656128569246
  O          -0.34829113473487     -1.53736751016077     -0.26102819016556
  C           0.75675509484103     -0.71952795711938     -0.33507021307243
  C           1.23985533027001     -0.37341548935791     -1.59344947797021
  C           2.35258770249428      0.45825409138323     -1.67514893601113
  C           2.97857287100692      0.94588844616760     -0.52263856875952
  S           4.38042578279995      2.03522154121209     -0.70988064855338
  C           5.75136767756670      0.85595109952308     -0.57582000284901
  C           2.48363026456852      0.59956862136806      0.75190506494308
  C           3.11248962182615      1.10863318032732      2.02160061864902
  C           1.37137798849667     -0.24572728648573      0.82320699420940
  H          -4.19159072178580     -4.20797245419759     -0.83404338812019
  H          -4.49958998743299     -3.90172845360495      0.89935778935875
  H          -3.58574621849317     -5.34940722688202      0.39507919079655
  H          -2.04703933503198     -3.57995733376135      1.28859294105021
  H          -1.71640350787492     -3.91176998331665     -0.43310408710632
  H          -2.33219653776558      0.26277583791832     -1.37198128344131
  H          -2.09299734227663      1.56930643736047      1.28139760998532
  H          -0.15038893050068      2.11122477326409     -0.16744280533204
  H          -1.15726366052787      3.56395632445590      0.07868424627706
  H          -1.24532378422598      2.66921421341318     -1.46018300958350
  H          -3.84433202839400      2.42586173591070     -1.09259494595906
  H          -4.41853800457124      1.67955318002830      0.42333314113751
  H          -3.68794434973609      3.30880984947479      0.44644295625629
  H           0.73973195386420     -0.74823419144779     -2.48865787372876
  H           2.74423857074741      0.74532885953699     -2.65423009649651
  H           6.67781564324601      1.43584391148319     -0.68920330186091
  H           5.75888193265638      0.36016958856023      0.40466526914237
  H           5.69519175529362      0.10422656886525     -1.37482829138610
  H           4.12621125381003      0.69968654800814      2.15494966727981
  H           3.20833183804754      2.20375152029780      2.00296868409498
  H           2.51311321649317      0.82118941498711      2.89567664002959
  H           0.95818345044703     -0.53050655304576      1.79302521344048
