41
Coordinates from ORCA-job opt E -1527.689889442488
  C      -3.625657     -3.685944     -0.468301
  C      -2.511515     -2.925241      0.220044
  O      -2.583481     -1.564572     -0.171305
  P      -1.385798     -0.600822      0.329713
  O      -1.077928     -0.794692      1.784465
  N      -1.858709      0.893443     -0.142665
  C      -2.684457      1.700129      0.747245
  C      -2.719354      3.130934      0.211913
  C      -4.100971      1.140982      0.860685
  O      -0.194755     -1.055157     -0.657673
  C       1.063450     -0.523609     -0.666147
  C       1.916728     -0.998580     -1.658258
  C       3.222398     -0.515344     -1.749600
  C       3.691605      0.445383     -0.844286
  S       5.378640      1.014277     -1.027239
  C       6.211854     -0.314221     -0.120821
  C       2.832042      0.935652      0.156667
  C       3.272904      1.977743      1.149443
  C       1.517719      0.436080      0.236545
  H      -3.531521     -3.606507     -1.556386
  H      -4.601282     -3.266126     -0.201727
  H      -3.607664     -4.742950     -0.188563
  H      -2.625095     -2.995279      1.306284
  H      -1.540107     -3.342126     -0.063936
  H      -2.268126      0.866891     -1.069151
  H      -2.227632      1.724547      1.743251
  H      -1.708593      3.548807      0.143174
  H      -3.300025      3.778396      0.877950
  H      -3.174447      3.179330     -0.783969
  H      -4.583938      1.065353     -0.119975
  H      -4.099698      0.145725      1.316864
  H      -4.721664      1.787669      1.490427
  H       1.567517     -1.744397     -2.367331
  H       3.870289     -0.893796     -2.536973
  H       7.287549     -0.119735     -0.107446
  H       5.853656     -0.358633      0.911368
  H       6.039499     -1.278902     -0.605884
  H       4.104257      1.602458      1.754586
  H       3.575048      2.894783      0.633587
  H       2.463774      2.245023      1.837812
  H       0.863487      0.813030      1.018616
41
Coordinates from ORCA-job opt E -1527.694759531325
  C      -3.624731     -3.772747     -0.482702
  C      -2.509042     -3.023302      0.213101
  O      -2.591929     -1.641210     -0.151579
  P      -1.422994     -0.645438      0.350967
  O      -1.096536     -0.787954      1.800741
  N      -1.877200      0.850552     -0.154407
  C      -2.660884      1.732902      0.727542
  C      -2.591879      3.155965      0.177507
  C      -4.109543      1.268095      0.889071
  O      -0.226029     -1.094424     -0.640570
  C       1.035678     -0.555108     -0.662838
  C       1.877546     -1.005438     -1.677720
  C       3.169184     -0.498575     -1.773011
  C       3.636335      0.451472     -0.855987
  S       5.306713      1.061618     -1.038422
  C       6.196796     -0.214277     -0.108176
  C       2.789666      0.909428      0.168075
  C       3.243869      1.930610      1.178706
  C       1.488750      0.392929      0.253950
  H      -3.536377     -3.674664     -1.575252
  H      -4.605070     -3.366780     -0.190548
  H      -3.593683     -4.839442     -0.220926
  H      -2.604994     -3.116083      1.306247
  H      -1.529467     -3.429731     -0.087964
  H      -2.246723      0.837179     -1.107647
  H      -2.177186      1.731095      1.716183
  H      -1.548231      3.493385      0.087559
  H      -3.117779      3.854447      0.844777
  H      -3.060125      3.220578     -0.817797
  H      -4.617147      1.210612     -0.087071
  H      -4.162218      0.275424      1.360968
  H      -4.673847      1.968115      1.523729
  H       1.520021     -1.744355     -2.398204
  H       3.819833     -0.849398     -2.577676
  H       7.266766      0.036170     -0.114288
  H       5.848268     -0.248585      0.933496
  H       6.062203     -1.200117     -0.574679
  H       4.101584      1.552880      1.755172
  H       3.539067      2.865984      0.681678
  H       2.441345      2.168768      1.890312
  H       0.839990      0.739421      1.060688
41
Coordinates from ORCA-job opt E -1527.696731050808
  C      -3.635229     -3.808646     -0.459889
  C      -2.505065     -3.081083      0.229628
  O      -2.593361     -1.683535     -0.106298
  P      -1.451842     -0.667158      0.399690
  O      -1.121130     -0.754201      1.845715
  N      -1.882454      0.826739     -0.141378
  C      -2.667031      1.745876      0.705895
  C      -2.497014      3.164796      0.175219
  C      -4.133333      1.331911      0.811820
  O      -0.249361     -1.120995     -0.595999
  C       1.013415     -0.577951     -0.641464
  C       1.826920     -0.996633     -1.693150
  C       3.108929     -0.474060     -1.801849
  C       3.592310      0.454368     -0.872398
  S       5.245197      1.098091     -1.075363
  C       6.192658     -0.123020     -0.126940
  C       2.772183      0.875866      0.189961
  C       3.251589      1.867749      1.218707
  C       1.481604      0.345863      0.292941
  H      -3.563157     -3.695533     -1.552907
  H      -4.609424     -3.412102     -0.133040
  H      -3.595933     -4.880715     -0.215571
  H      -2.569212     -3.190494      1.325069
  H      -1.527288     -3.474650     -0.098566
  H      -2.164211      0.835614     -1.123546
  H      -2.212879      1.695961      1.709345
  H      -1.432470      3.441661      0.130346
  H      -3.016425      3.884298      0.826348
  H      -2.921135      3.255766     -0.839559
  H      -4.604076      1.313914     -0.186066
  H      -4.235293      0.329107      1.257463
  H      -4.692863      2.040451      1.442386
  H       1.447526     -1.718015     -2.421299
  H       3.749218     -0.792085     -2.629776
  H       7.249851      0.177899     -0.170221
  H       5.868790     -0.139201      0.924362
  H       6.087165     -1.125919     -0.566183
  H       4.137813      1.486741      1.750632
  H       3.536645      2.820358      0.746638
  H       2.466775      2.070881      1.961164
  H       0.851597      0.652084      1.131136
41
Coordinates from ORCA-job opt E -1527.697250733566
  C      -3.640439     -3.826730     -0.415783
  C      -2.493470     -3.106845      0.250538
  O      -2.589084     -1.705585     -0.074231
  P      -1.466612     -0.675621      0.429396
  O      -1.146088     -0.727144      1.876907
  N      -1.890292      0.810451     -0.136656
  C      -2.683396      1.747084      0.681645
  C      -2.447405      3.163266      0.173811
  C      -4.162180      1.371434      0.719462
  O      -0.256423     -1.136313     -0.562613
  C       1.002322     -0.587945     -0.619779
  C       1.792125     -0.967674     -1.703626
  C       3.070014     -0.434889     -1.819895
  C       3.570539      0.464012     -0.871541
  S       5.210259      1.131837     -1.094415
  C       6.200272     -0.074463     -0.170068
  C       2.771494      0.846260      0.224111
  C       3.264687      1.809702      1.272292
  C       1.486458      0.304764      0.336744
  H      -3.592555     -3.710130     -1.508705
  H      -4.605231     -3.435209     -0.059638
  H      -3.592981     -4.899598     -0.177600
  H      -2.526083     -3.218587      1.346256
  H      -1.522436     -3.491187     -0.103800
  H      -2.106311      0.833384     -1.133435
  H      -2.271313      1.666619      1.701073
  H      -1.374376      3.405312      0.179753
  H      -2.976059      3.891995      0.806204
  H      -2.821900      3.273019     -0.857872
  H      -4.589314      1.384860     -0.297212
  H      -4.305411      0.363241      1.137992
  H      -4.729361      2.081840      1.340427
  H       1.395533     -1.666123     -2.443627
  H       3.697505     -0.718987     -2.669166
  H       7.246657      0.255235     -0.240020
  H       5.903307     -0.101814      0.888057
  H       6.107526     -1.076427     -0.612064
  H       4.167643      1.424909      1.770933
  H       3.537533      2.777417      0.825356
  H       2.493785      1.980727      2.036185
  H       0.871059      0.573901      1.197609
41
Coordinates from ORCA-job opt E -1527.697503538770
  C      -3.670140     -3.838096     -0.384032
  C      -2.502201     -3.132031      0.259374
  O      -2.589899     -1.729854     -0.060521
  P      -1.473631     -0.700444      0.445310
  O      -1.171756     -0.738384      1.897438
  N      -1.884980      0.781867     -0.132654
  C      -2.669083      1.735569      0.670258
  C      -2.374353      3.148950      0.185864
  C      -4.159560      1.406952      0.654411
  O      -0.255238     -1.171506     -0.537112
  C       0.994182     -0.608542     -0.607258
  C       1.768207     -0.957392     -1.712380
  C       3.040245     -0.410508     -1.838127
  C       3.548073      0.475255     -0.881678
  S       5.174998      1.166274     -1.123637
  C       6.193526     -0.002134     -0.181819
  C       2.763165      0.828106      0.235263
  C       3.260963      1.776920      1.293439
  C       1.486106      0.269207      0.359460
  H      -3.643143     -3.720143     -1.476819
  H      -4.622699     -3.439308     -0.005969
  H      -3.627373     -4.911581     -0.149479
  H      -2.511788     -3.243371      1.354846
  H      -1.542118     -3.521027     -0.116174
  H      -2.059354      0.819448     -1.135784
  H      -2.292712      1.629160      1.700484
  H      -1.295683      3.357589      0.230602
  H      -2.902967      3.887210      0.806410
  H      -2.709614      3.279240     -0.856176
  H      -4.554088      1.453167     -0.373670
  H      -4.344634      0.395698      1.046566
  H      -4.724409      2.121655      1.271768
  H       1.364250     -1.645820     -2.456945
  H       3.658606     -0.671152     -2.700980
  H       7.231207      0.348055     -0.270378
  H       5.908457     -0.013224      0.879191
  H       6.116234     -1.013959     -0.602140
  H       4.175533      1.394669      1.771664
  H       3.518848      2.754528      0.860158
  H       2.499824      1.925897      2.070890
  H       0.879001      0.513063      1.233339
41
Coordinates from ORCA-job opt E -1527.697773116191
  C      -3.732131     -3.860764     -0.344593
  C      -2.533499     -3.178607      0.267355
  O      -2.597860     -1.776952     -0.053383
  P      -1.485086     -0.755258      0.463336
  O      -1.220041     -0.785524      1.924365
  N      -1.868816      0.724470     -0.127591
  C      -2.625353      1.709182      0.657682
  C      -2.223568      3.112363      0.220660
  C      -4.131163      1.475441      0.558059
  O      -0.250128     -1.245471     -0.493729
  C       0.981885     -0.652878     -0.583239
  C       1.736937     -0.958489     -1.713757
  C       2.995152     -0.382451     -1.855978
  C       3.505658      0.494677     -0.893120
  S       5.106249      1.232769     -1.167489
  C       6.175319      0.131470     -0.201638
  C       2.738312      0.807190      0.248585
  C       3.232418      1.752151      1.310969
  C       1.478522      0.214013      0.391686
  H      -3.730551     -3.743580     -1.437413
  H      -4.665924     -3.442694      0.057315
  H      -3.705284     -4.934691     -0.111224
  H      -2.518230     -3.286477      1.362680
  H      -1.591351     -3.585955     -0.131565
  H      -1.990358      0.783403     -1.136301
  H      -2.310616      1.559966      1.702402
  H      -1.138906      3.255873      0.328850
  H      -2.742251      3.869515      0.826127
  H      -2.491215      3.281471     -0.834722
  H      -4.471091      1.578606     -0.484709
  H      -4.393815      0.464851      0.904018
  H      -4.683394      2.202400      1.171982
  H       1.329291     -1.639726     -2.462474
  H       3.601127     -0.611286     -2.735979
  H       7.197194      0.518372     -0.313469
  H       5.903908      0.140187      0.862495
  H       6.131465     -0.893874     -0.591668
  H       4.160859      1.383607      1.772410
  H       3.464416      2.739089      0.884498
  H       2.480788      1.878222      2.101057
  H       0.881132      0.425390      1.280514
41
Coordinates from ORCA-job opt E -1527.697945286958
  C      -3.776230     -3.900696     -0.291381
  C      -2.551194     -3.228644      0.278680
  O      -2.604106     -1.830798     -0.053742
  P      -1.499495     -0.806373      0.470126
  O      -1.268881     -0.827154      1.939037
  N      -1.865851      0.666263     -0.137216
  C      -2.585692      1.685170      0.633443
  C      -2.068346      3.067154      0.250008
  C      -4.097490      1.559912      0.452903
  O      -0.244368     -1.310663     -0.454871
  C       0.967687     -0.682333     -0.557413
  C       1.708125     -0.937477     -1.709623
  C       2.950455     -0.329179     -1.859137
  C       3.457974      0.534710     -0.882508
  S       5.034824      1.316653     -1.172376
  C       6.153223      0.225374     -0.252560
  C       2.703207      0.801139      0.279214
  C       3.186819      1.739630      1.351985
  C       1.462838      0.170735      0.430954
  H      -3.806774     -3.790102     -1.384537
  H      -4.692390     -3.467639      0.134428
  H      -3.756067     -4.973341     -0.052157
  H      -2.507195     -3.327016      1.374168
  H      -1.626728     -3.652837     -0.143199
  H      -1.948299      0.737558     -1.148614
  H      -2.337540      1.496271      1.689122
  H      -0.984498      3.136036      0.422639
  H      -2.569178      3.847169      0.841309
  H      -2.261778      3.273467     -0.814787
  H      -4.377097      1.719726     -0.600525
  H      -4.443387      0.558437      0.748994
  H      -4.630906      2.302773      1.064282
  H       1.302772     -1.608738     -2.468610
  H       3.547038     -0.522821     -2.753656
  H       7.161463      0.642946     -0.376793
  H       5.906522      0.201715      0.817110
  H       6.129087     -0.791841     -0.664716
  H       4.121530      1.380487      1.807806
  H       3.399581      2.734951      0.934958
  H       2.437000      1.846043      2.146586
  H       0.873345      0.343331      1.333672
41
Coordinates from ORCA-job opt E -1527.698102594730
  C      -3.772641     -3.933910     -0.245569
  C      -2.536015     -3.249030      0.283776
  O      -2.604765     -1.855871     -0.062534
  P      -1.506286     -0.816428      0.450476
  O      -1.274205     -0.829132      1.920179
  N      -1.888386      0.646296     -0.167495
  C      -2.572648      1.687586      0.605751
  C      -2.020831      3.054280      0.214077
  C      -4.088768      1.603065      0.438600
  O      -0.245504     -1.319093     -0.465079
  C       0.959047     -0.673779     -0.564128
  C       1.694300     -0.892238     -1.727020
  C       2.930965     -0.271375     -1.867959
  C       3.437997      0.569338     -0.870580
  S       5.014344      1.358941     -1.142345
  C       6.132069      0.235484     -0.261852
  C       2.688859      0.799469      0.301437
  C       3.177737      1.706798      1.398893
  C       1.453687      0.157360      0.442892
  H      -3.835500     -3.832425     -1.338628
  H      -4.679447     -3.500835      0.200634
  H      -3.740424     -5.004389      0.002236
  H      -2.463647     -3.337122      1.379003
  H      -1.621684     -3.676096     -0.157903
  H      -1.989187      0.708728     -1.178199
  H      -2.322191      1.497539      1.660672
  H      -0.933846      3.095579      0.377843
  H      -2.494927      3.849737      0.807344
  H      -2.217347      3.263259     -0.849933
  H      -4.373237      1.769509     -0.612898
  H      -4.459263      0.611658      0.739983
  H      -4.596162      2.361673      1.053006
  H       1.290459     -1.545617     -2.502641
  H       3.522556     -0.437853     -2.771351
  H       7.142615      0.651425     -0.374486
  H       5.888075      0.178555      0.807595
  H       6.102616     -0.768543     -0.705709
  H       4.108166      1.328083      1.848273
  H       3.396376      2.710892      1.006685
  H       2.427377      1.799427      2.195126
  H       0.869668      0.299055      1.354837
41
Coordinates from ORCA-job opt E -1527.698255863547
  C      -3.790130     -3.978627     -0.196072
  C      -2.534741     -3.290984      0.284253
  O      -2.612189     -1.901607     -0.075046
  P      -1.523134     -0.850416      0.443853
  O      -1.309437     -0.851503      1.916768
  N      -1.905564      0.601374     -0.195903
  C      -2.536766      1.684674      0.566710
  C      -1.905390      3.017013      0.177161
  C      -4.053435      1.681033      0.388467
  O      -0.245600     -1.360746     -0.440539
  C       0.946558     -0.687447     -0.539617
  C       1.667599     -0.852613     -1.719798
  C       2.887218     -0.199965     -1.859319
  C       3.391516      0.618337     -0.841778
  S       4.948421      1.447934     -1.107723
  C       6.099943      0.296628     -0.311314
  C       2.657075      0.794345      0.347730
  C       3.149097      1.672874      1.467693
  C       1.437417      0.123353      0.485241
  H      -3.891565     -3.886154     -1.287603
  H      -4.680810     -3.538020      0.275819
  H      -3.752112     -5.047183      0.060259
  H      -2.427240     -3.370086      1.377892
  H      -1.636922     -3.728476     -0.182118
  H      -2.009676      0.652710     -1.207341
  H      -2.306653      1.485326      1.624826
  H      -0.818655      2.998746      0.349297
  H      -2.338155      3.839738      0.765687
  H      -2.082132      3.234271     -0.889208
  H      -4.320254      1.858981     -0.666389
  H      -4.478863      0.712133      0.691896
  H      -4.522617      2.470014      0.995518
  H       1.265741     -1.486192     -2.513258
  H       3.464057     -0.320990     -2.779686
  H       7.104669      0.726273     -0.428712
  H       5.883738      0.187224      0.760639
  H       6.068063     -0.686461     -0.800864
  H       4.078868      1.279400      1.906834
  H       3.367864      2.686644      1.101233
  H       2.399736      1.745869      2.267496
  H       0.864462      0.222578      1.410019
41
Coordinates from ORCA-job opt E -1527.698334875665
  C      -3.811660     -4.032762     -0.122150
  C      -2.533305     -3.343370      0.290923
  O      -2.621429     -1.958981     -0.085132
  P      -1.550685     -0.891011      0.444709
  O      -1.369639     -0.867000      1.921639
  N      -1.930045      0.543745     -0.230082
  C      -2.496799      1.679956      0.506739
  C      -1.754541      2.957835      0.131501
  C      -4.003454      1.785182      0.285895
  O      -0.247397     -1.412468     -0.393480
  C       0.925964     -0.703021     -0.496022
  C       1.616144     -0.789280     -1.702410
  C       2.812311     -0.094828     -1.841584
  C       3.323591      0.683902     -0.796784
  S       4.848601      1.571907     -1.060579
  C       6.055972      0.394471     -0.396558
  C       2.621834      0.775974      0.421324
  C       3.128974      1.602527      1.573826
  C       1.424251      0.066243      0.556060
  H      -3.962870     -3.954942     -1.209318
  H      -4.678601     -3.580942      0.382750
  H      -3.765963     -5.097934      0.147388
  H      -2.377364     -3.409032      1.379986
  H      -1.658725     -3.792914     -0.207756
  H      -2.019082      0.580029     -1.243556
  H      -2.312393      1.469333      1.571861
  H      -0.677399      2.857282      0.333711
  H      -2.138749      3.814389      0.705819
  H      -1.885125      3.182344     -0.940294
  H      -4.226938      1.975361     -0.777173
  H      -4.504988      0.851289      0.582799
  H      -4.429457      2.611478      0.875206
  H       1.208076     -1.389912     -2.518203
  H       3.361762     -0.148679     -2.785044
  H       7.046991      0.852385     -0.525223
  H       5.888094      0.206870      0.673523
  H       6.021718     -0.553315     -0.951708
  H       4.063592      1.186710      1.982273
  H       3.345187      2.631941      1.252930
  H       2.389922      1.637412      2.385982
  H       0.873623      0.101827      1.499215
41
Coordinates from ORCA-job opt E -1527.698383728539
  C      -3.822272     -4.036997     -0.125560
  C      -2.539008     -3.352905      0.280477
  O      -2.625149     -1.966637     -0.089876
  P      -1.553144     -0.903773      0.446237
  O      -1.374260     -0.880541      1.922868
  N      -1.928506      0.533678     -0.226099
  C      -2.478107      1.675285      0.515273
  C      -1.717003      2.943289      0.144801
  C      -3.982991      1.803376      0.295647
  O      -0.249386     -1.428402     -0.390922
  C       0.920846     -0.715331     -0.501157
  C       1.609679     -0.806932     -1.707927
  C       2.804069     -0.109561     -1.851897
  C       3.312381      0.679341     -0.813558
  S       4.833586      1.572136     -1.083468
  C       6.040917      0.423982     -0.369685
  C       2.610135      0.778130      0.404352
  C       3.112248      1.616789      1.549930
  C       1.416610      0.062322      0.545563
  H      -3.979751     -3.957012     -1.211404
  H      -4.684041     -3.583874      0.386448
  H      -3.777854     -5.102701      0.141667
  H      -2.374700     -3.422359      1.367843
  H      -1.669094     -3.801938     -0.226074
  H      -2.016987      0.572207     -1.239257
  H      -2.295294      1.456145      1.578944
  H      -0.641564      2.824010      0.344517
  H      -2.086841      3.802678      0.723986
  H      -1.845729      3.174711     -0.925500
  H      -4.204504      1.999577     -0.766452
  H      -4.497885      0.876386      0.590069
  H      -4.396139      2.634106      0.887622
  H       1.203501     -1.415534     -2.518427
  H       3.354827     -0.169492     -2.794145
  H       7.029084      0.888652     -0.494332
  H       5.856501      0.262805      0.701731
  H       6.025053     -0.537838     -0.900567
  H       4.049419      1.209250      1.960586
  H       3.324609      2.644686      1.222196
  H       2.373113      1.652596      2.361691
  H       0.863628      0.105689      1.486864
41
Coordinates from ORCA-job opt E -1527.698439174139
  C      -3.833529     -4.062326     -0.111760
  C      -2.540565     -3.379816      0.264471
  O      -2.632126     -1.992966     -0.103448
  P      -1.566741     -0.930041      0.444129
  O      -1.399855     -0.900263      1.921338
  N      -1.942732      0.505176     -0.233341
  C      -2.440592      1.668866      0.509500
  C      -1.626214      2.903470      0.138879
  C      -3.938536      1.861366      0.291924
  O      -0.253369     -1.458343     -0.378705
  C       0.907411     -0.731159     -0.494796
  C       1.590698     -0.808256     -1.705498
  C       2.777291     -0.096421     -1.850063
  C       3.280623      0.693434     -0.810499
  S       4.790100      1.605832     -1.081832
  C       6.011746      0.471441     -0.369548
  C       2.580269      0.780794      0.410394
  C       3.069759      1.627135      1.555194
  C       1.397225      0.047429      0.553619
  H      -4.013283     -3.985919     -1.194039
  H      -4.682679     -3.606554      0.417935
  H      -3.784793     -5.127110      0.157721
  H      -2.350946     -3.449284      1.347425
  H      -1.682541     -3.828084     -0.261707
  H      -2.034933      0.540242     -1.245836
  H      -2.264185      1.439181      1.571838
  H      -0.556667      2.734175      0.332691
  H      -1.954195      3.776299      0.722804
  H      -1.749273      3.143472     -0.929829
  H      -4.153951      2.065185     -0.769599
  H      -4.492279      0.958256      0.588487
  H      -4.313679      2.709964      0.883457
  H       1.188804     -1.418816     -2.516221
  H       3.327270     -0.147972     -2.793102
  H       6.992897      0.951933     -0.486832
  H       5.823889      0.300945      0.699370
  H       6.013070     -0.486629     -0.906727
  H       4.009430      1.228799      1.968743
  H       3.276534      2.656144      1.228022
  H       2.327898      1.655250      2.364338
  H       0.842748      0.085170      1.494106
41
Coordinates from ORCA-job opt E -1527.698458033276
  C      -3.854346     -4.123310     -0.070147
  C      -2.542350     -3.441367      0.233460
  O      -2.650870     -2.053698     -0.128796
  P      -1.604278     -0.985639      0.441565
  O      -1.467460     -0.941203      1.920881
  N      -1.982743      0.441401     -0.250464
  C      -2.356172      1.654007      0.484802
  C      -1.418338      2.798154      0.112338
  C      -3.824748      1.998373      0.259304
  O      -0.266600     -1.519931     -0.343836
  C       0.871728     -0.759909     -0.470765
  C       1.535135     -0.793351     -1.693924
  C       2.699774     -0.045068     -1.841779
  C       3.197108      0.738992     -0.795625
  S       4.676919      1.697733     -1.071626
  C       5.936018      0.588383     -0.384220
  C       2.513038      0.784921      0.437797
  C       2.990259      1.626777      1.590296
  C       1.355488      0.012155      0.585231
  H      -4.090155     -4.052597     -1.141652
  H      -4.672821     -3.664321      0.502505
  H      -3.791912     -5.186685      0.201361
  H      -2.293161     -3.511029      1.304017
  H      -1.714056     -3.887755     -0.338889
  H      -2.081873      0.467037     -1.261878
  H      -2.206686      1.410216      1.547650
  H      -0.372889      2.515923      0.305895
  H      -1.651868      3.700644      0.696369
  H      -1.515131      3.048152     -0.956369
  H      -4.015568      2.216047     -0.803778
  H      -4.469863      1.159794      0.559307
  H      -4.110661      2.885317      0.844014
  H       1.137231     -1.399219     -2.509680
  H       3.237980     -0.064195     -2.792614
  H       6.900883      1.101930     -0.493476
  H       5.754463      0.390806      0.680619
  H       5.966388     -0.357578     -0.941015
  H       3.936559      1.237212      1.997231
  H       3.185425      2.661878      1.276501
  H       2.249728      1.631764      2.400655
  H       0.810427      0.019238      1.531744
41
Coordinates from ORCA-job opt E -1527.698506951328
  C      -3.830985     -4.098926     -0.084964
  C      -2.529578     -3.408739      0.244892
  O      -2.642063     -2.021100     -0.116549
  P      -1.588193     -0.950955      0.435540
  O      -1.428337     -0.909907      1.913132
  N      -1.979330      0.476973     -0.249103
  C      -2.405340      1.668065      0.493667
  C      -1.537174      2.861552      0.106846
  C      -3.893766      1.934740      0.291429
  O      -0.263688     -1.479466     -0.374255
  C       0.889182     -0.740600     -0.488754
  C       1.567800     -0.796198     -1.702947
  C       2.746122     -0.069303     -1.843828
  C       3.245399      0.714039     -0.797775
  S       4.744580      1.644361     -1.065445
  C       5.979969      0.512305     -0.372217
  C       2.549034      0.780409      0.427123
  C       3.030591      1.620231      1.579687
  C       1.375084      0.031800      0.566550
  H      -4.048553     -4.025369     -1.160385
  H      -4.663260     -3.647956      0.474484
  H      -3.766075     -5.163035      0.183568
  H      -2.300429     -3.478923      1.320063
  H      -1.687988     -3.848930     -0.313226
  H      -2.086044      0.504542     -1.260162
  H      -2.227638      1.434713      1.554603
  H      -0.474813      2.640098      0.287822
  H      -1.813910      3.751272      0.691769
  H      -1.661328      3.103120     -0.961225
  H      -4.112003      2.142005     -0.768722
  H      -4.489862      1.063422      0.600686
  H      -4.217596      2.805159      0.881463
  H       1.168763     -1.401671     -2.518789
  H       3.293785     -0.104291     -2.788891
  H       6.955301      1.006218     -0.481068
  H       5.793203      0.321311      0.693226
  H       5.992225     -0.436015     -0.926126
  H       3.971739      1.223723      1.991933
  H       3.234305      2.652830      1.262194
  H       2.286987      1.636215      2.387362
  H       0.823883      0.052283      1.509395
41
Coordinates from ORCA-job opt E -1527.698535883278
  C      -3.829801     -4.110324     -0.081005
  C      -2.525539     -3.418753      0.234449
  O      -2.646143     -2.029401     -0.118637
  P      -1.595266     -0.957825      0.435105
  O      -1.436543     -0.916339      1.913120
  N      -1.990400      0.468630     -0.249554
  C      -2.394673      1.666537      0.493914
  C      -1.508138      2.847004      0.107979
  C      -3.878666      1.957758      0.291877
  O      -0.267850     -1.485646     -0.371634
  C       0.882411     -0.743250     -0.486905
  C       1.562602     -0.799789     -1.700236
  C       2.738535     -0.069615     -1.842244
  C       3.234417      0.718226     -0.797850
  S       4.731964      1.650703     -1.066587
  C       5.968735      0.522604     -0.369287
  C       2.537196      0.785431      0.426174
  C       3.016738      1.628132      1.577563
  C       1.365257      0.034102      0.566442
  H      -4.062720     -4.031633     -1.152935
  H      -4.655375     -3.664361      0.492355
  H      -3.758622     -5.175737      0.180873
  H      -2.282105     -3.493885      1.306239
  H      -1.690582     -3.854137     -0.337308
  H      -2.098757      0.497021     -1.260432
  H      -2.221259      1.430428      1.554882
  H      -0.449149      2.610303      0.290844
  H      -1.772566      3.740801      0.692456
  H      -1.626947      3.090127     -0.960419
  H      -4.093250      2.170689     -0.768006
  H      -4.489119      1.095593      0.599165
  H      -4.188558      2.832083      0.883754
  H       1.166051     -1.408585     -2.514954
  H       3.286915     -0.104917     -2.786925
  H       6.943597      1.017271     -0.479625
  H       5.782062      0.334962      0.696917
  H       5.981928     -0.427684     -0.919984
  H       3.957826      1.233699      1.992202
  H       3.219310      2.660164      1.257310
  H       2.272194      1.645712      2.384421
  H       0.814292      0.053898      1.509490
41
Coordinates from ORCA-job opt E -1527.698579896991
  C      -3.814219     -4.140830     -0.070502
  C      -2.506111     -3.438666      0.203009
  O      -2.658099     -2.044237     -0.119311
  P      -1.614671     -0.966052      0.433125
  O      -1.449924     -0.922945      1.911115
  N      -2.027908      0.455086     -0.250385
  C      -2.377669      1.669276      0.493762
  C      -1.454482      2.818717      0.099320
  C      -3.852171      2.014102      0.303363
  O      -0.283231     -1.489393     -0.372737
  C       0.865106     -0.744563     -0.484322
  C       1.554301     -0.807767     -1.692680
  C       2.727715     -0.074527     -1.833828
  C       3.214359      0.723377     -0.792268
  S       4.711004      1.657565     -1.059131
  C       5.947887      0.529495     -0.361977
  C       2.510652      0.796046      0.426833
  C       2.984061      1.646090      1.575674
  C       1.340174      0.042677      0.565572
  H      -4.095218     -4.043221     -1.129467
  H      -4.619884     -3.718039      0.547330
  H      -3.718269     -5.210515      0.165249
  H      -2.218421     -3.530583      1.262679
  H      -1.690670     -3.852824     -0.411175
  H      -2.145203      0.484339     -1.260256
  H      -2.205629      1.430569      1.554306
  H      -0.402171      2.551124      0.280227
  H      -1.688740      3.722634      0.681295
  H      -1.569166      3.061056     -0.969859
  H      -4.066569      2.236540     -0.754855
  H      -4.491462      1.173956      0.613609
  H      -4.126265      2.897877      0.899119
  H       1.164743     -1.423947     -2.505522
  H       3.280850     -0.113327     -2.775728
  H       6.923590      1.022075     -0.475726
  H       5.763681      0.344683      0.705417
  H       5.957534     -0.422438     -0.910308
  H       3.924171      1.256502      1.997323
  H       3.184173      2.676523      1.248395
  H       2.235997      1.668508      2.379413
  H       0.786154      0.065056      1.506907
41
Coordinates from ORCA-job opt E -1527.698608709232
  C      -3.788928     -4.162456     -0.058294
  C      -2.480882     -3.445500      0.174038
  O      -2.667241     -2.047165     -0.112925
  P      -1.629082     -0.961278      0.432992
  O      -1.453224     -0.915087      1.909841
  N      -2.062112      0.454012     -0.249492
  C      -2.379809      1.678389      0.492339
  C      -1.442203      2.810620      0.082582
  C      -3.850264      2.048269      0.316603
  O      -0.297917     -1.478962     -0.378564
  C       0.852465     -0.737323     -0.485425
  C       1.548482     -0.807472     -1.689897
  C       2.724533     -0.078687     -1.828468
  C       3.208748      0.721679     -0.787320
  S       4.710912      1.648279     -1.049367
  C       5.939745      0.512997     -0.349742
  C       2.499669      0.800616      0.427814
  C       2.972620      1.651540      1.576404
  C       1.325715      0.052214      0.563615
  H      -4.120201     -4.042497     -1.100380
  H      -4.572064     -3.770090      0.606893
  H      -3.664830     -5.236114      0.144224
  H      -2.147332     -3.554855      1.218657
  H      -1.686484     -3.833619     -0.483151
  H      -2.187491      0.482067     -1.258438
  H      -2.201102      1.442307      1.552389
  H      -0.392130      2.530051      0.256743
  H      -1.658576      3.721513      0.660716
  H      -1.562412      3.047862     -0.987217
  H      -4.071587      2.271553     -0.740134
  H      -4.500953      1.220239      0.635779
  H      -4.102845      2.938303      0.912583
  H       1.161361     -1.426142     -2.502170
  H       3.281907     -0.122663     -2.767694
  H       6.919084      0.998358     -0.464054
  H       5.754111      0.331402      0.718103
  H       5.942593     -0.440127     -0.896258
  H       3.911705      1.261650      2.000000
  H       3.173203      2.681291      1.247089
  H       2.223302      1.676885      2.379033
  H       0.769512      0.077944      1.503562
41
Coordinates from ORCA-job opt E -1527.698609553733
  C      -3.744496     -4.197942     -0.026503
  C      -2.438766     -3.454008      0.116942
  O      -2.684055     -2.051703     -0.099474
  P      -1.653406     -0.953126      0.434177
  O      -1.456916     -0.900247      1.908139
  N      -2.121001      0.451387     -0.246276
  C      -2.382596      1.695032      0.485741
  C      -1.421467      2.793622      0.041162
  C      -3.844814      2.106842      0.336731
  O      -0.324215     -1.460669     -0.388889
  C       0.830283     -0.725205     -0.487254
  C       1.533808     -0.800193     -1.687656
  C       2.714752     -0.078869     -1.820151
  C       3.198022      0.719104     -0.776283
  S       4.707983      1.635809     -1.028589
  C       5.924924      0.490029     -0.325478
  C       2.482366      0.802484      0.434397
  C       2.955003      1.650578      1.585457
  C       1.302706      0.061693      0.563845
  H      -4.178576     -4.037222     -1.024406
  H      -4.469016     -3.864270      0.730785
  H      -3.572847     -5.275916      0.106883
  H      -2.011051     -3.593448      1.123166
  H      -1.697430     -3.794041     -0.623236
  H      -2.260326      0.474967     -1.253466
  H      -2.188827      1.466790      1.544969
  H      -0.375902      2.488429      0.199042
  H      -1.601864      3.718318      0.609774
  H      -1.556785      3.018900     -1.029464
  H      -4.081068      2.325544     -0.717794
  H      -4.512988      1.302190      0.678417
  H      -4.058173      3.010474      0.927379
  H       1.148244     -1.417780     -2.501561
  H       3.276979     -0.126867     -2.756305
  H       6.909000      0.966308     -0.437623
  H       5.735278      0.310648      0.742095
  H       5.920507     -0.463452     -0.871390
  H       3.893792      1.259400      2.008205
  H       3.154759      2.681199      1.258299
  H       2.205016      1.674888      2.387589
  H       0.743163      0.090323      1.501610
41
Coordinates from ORCA-job opt E -1527.698640064221
  C      -3.770678     -4.176472     -0.038223
  C      -2.461384     -3.449146      0.150727
  O      -2.673417     -2.048987     -0.107822
  P      -1.639157     -0.955785      0.431701
  O      -1.453422     -0.904848      1.906725
  N      -2.090536      0.453519     -0.250804
  C      -2.384491      1.688195      0.484490
  C      -1.440557      2.805626      0.050360
  C      -3.853156      2.071717      0.326845
  O      -0.309316     -1.466799     -0.386270
  C       0.844304     -0.729418     -0.487323
  C       1.540466     -0.795332     -1.692172
  C       2.719743     -0.070709     -1.825908
  C       3.207086      0.721252     -0.779728
  S       4.712465      1.644791     -1.034999
  C       5.936783      0.503410     -0.337626
  C       2.497412      0.795880      0.435608
  C       2.972075      1.639424      1.588946
  C       1.320151      0.051282      0.566672
  H      -4.150019     -4.038135     -1.061352
  H      -4.527025     -3.808907      0.670525
  H      -3.625140     -5.252616      0.134552
  H      -2.083468     -3.571226      1.178709
  H      -1.691282     -3.817836     -0.545002
  H      -2.222654      0.477773     -1.258931
  H      -2.192696      1.458340      1.543770
  H      -0.391238      2.515243      0.210192
  H      -1.637860      3.724107      0.623270
  H      -1.575470      3.034847     -1.019370
  H      -4.087242      2.287691     -0.728550
  H      -4.507339      1.253603      0.663235
  H      -4.087484      2.970030      0.917536
  H       1.151323     -1.407754     -2.508062
  H       3.277307     -0.112047     -2.765085
  H       6.917586      0.986463     -0.448419
  H       5.748801      0.318335      0.729076
  H       5.938406     -0.447553     -0.887671
  H       3.913049      1.247720      2.006214
  H       3.169935      2.672098      1.267430
  H       2.224885      1.657121      2.393674
  H       0.763254      0.075101      1.506064
41
Coordinates from ORCA-job opt E -1527.698647197682
  C      -3.771655     -4.180438     -0.027854
  C      -2.459817     -3.453634      0.144899
  O      -2.674516     -2.053454     -0.110559
  P      -1.642251     -0.958972      0.430301
  O      -1.458117     -0.907140      1.905371
  N      -2.096914      0.448921     -0.252557
  C      -2.380016      1.687893      0.479846
  C      -1.428580      2.797026      0.040657
  C      -3.845982      2.081554      0.323580
  O      -0.310876     -1.468326     -0.386095
  C       0.841556     -0.728934     -0.486350
  C       1.535047     -0.787652     -1.693052
  C       2.713420     -0.061058     -1.825195
  C       3.201896      0.726059     -0.775971
  S       4.705534      1.652965     -1.029414
  C       5.932663      0.510975     -0.338054
  C       2.494223      0.793978      0.441046
  C       2.968807      1.633387      1.597376
  C       1.318294      0.046907      0.570729
  H      -4.164112     -4.040854     -1.045823
  H      -4.518676     -3.813552      0.691017
  H      -3.624218     -5.256812      0.141800
  H      -2.069067     -3.576521      1.167963
  H      -1.698543     -3.822038     -0.560569
  H      -2.228202      0.472477     -1.260767
  H      -2.187959      1.459041      1.539304
  H      -0.381217      2.498802      0.198646
  H      -1.617347      3.718702      0.611290
  H      -1.564345      3.024333     -1.029356
  H      -4.080271      2.296506     -0.731936
  H      -4.505307      1.269056      0.663308
  H      -4.072720      2.983177      0.912158
  H       1.144952     -1.396185     -2.511341
  H       3.269390     -0.097340     -2.765511
  H       6.912299      0.996714     -0.447182
  H       5.745722      0.320497      0.727823
  H       5.936257     -0.437373     -0.892536
  H       3.911678      1.242241      2.010817
  H       3.163400      2.668210      1.280829
  H       2.223167      1.644753      2.403594
  H       0.762403      0.066111      1.510776
41
Coordinates from ORCA-job opt E -1527.698657541595
  C      -3.776333     -4.196943      0.009466
  C      -2.456829     -3.472000      0.121620
  O      -2.680226     -2.071798     -0.124018
  P      -1.654928     -0.973964      0.422900
  O      -1.475676     -0.920520      1.898218
  N      -2.122340      0.429778     -0.259294
  C      -2.354093      1.685618      0.462458
  C      -1.375340      2.759076     -0.005135
  C      -3.808935      2.122763      0.322197
  O      -0.318075     -1.476785     -0.388385
  C       0.829538     -0.729279     -0.484633
  C       1.514501     -0.760852     -1.696954
  C       2.688106     -0.024716     -1.822465
  C       3.178369      0.745874     -0.762149
  S       4.674433      1.687106     -1.007520
  C       5.911900      0.545743     -0.333875
  C       2.477422      0.787850      0.460170
  C       2.950112      1.612355      1.627758
  C       1.307408      0.030256      0.583607
  H      -4.215698     -4.055363     -0.988800
  H      -4.488507     -3.830365      0.762884
  H      -3.622818     -5.273786      0.170366
  H      -2.019595     -3.596938      1.125411
  H      -1.729100     -3.840565     -0.618126
  H      -2.255487      0.450229     -1.267226
  H      -2.153242      1.461790      1.521357
  H      -0.335786      2.428018      0.138195
  H      -1.524025      3.693259      0.556781
  H      -1.522290      2.978248     -1.075303
  H      -4.052179      2.332103     -0.732278
  H      -4.487794      1.335713      0.682173
  H      -3.998390      3.038484      0.902040
  H       1.122437     -1.355641     -2.524195
  H       3.238740     -0.041098     -2.766419
  H       6.886859      1.042225     -0.435506
  H       5.726721      0.337058      0.728769
  H       5.924762     -0.393739     -0.902979
  H       3.901211      1.226241      2.026736
  H       3.129521      2.655449      1.329935
  H       2.210747      1.597870      2.439499
  H       0.754898      0.031246      1.525723
41
Coordinates from ORCA-job opt E -1527.698661701241
  C      -3.777935     -4.193173      0.001939
  C      -2.459601     -3.468769      0.129927
  O      -2.678158     -2.069200     -0.123758
  P      -1.652095     -0.971945      0.422796
  O      -1.473190     -0.918701      1.898244
  N      -2.116929      0.432630     -0.260041
  C      -2.356495      1.686222      0.463097
  C      -1.386366      2.766778     -0.006119
  C      -3.814699      2.113514      0.326528
  O      -0.315839     -1.475782     -0.388629
  C       0.832508     -0.729282     -0.485055
  C       1.517555     -0.762177     -1.697267
  C       2.691716     -0.027066     -1.823248
  C       3.182621      0.743746     -0.763386
  S       4.679317      1.683765     -1.009619
  C       5.915875      0.542448     -0.334233
  C       2.481933      0.786740      0.459015
  C       2.955694      1.611183      1.626252
  C       1.311323      0.030237      0.582853
  H      -4.202688     -4.055643     -1.003216
  H      -4.500638     -3.822640      0.743338
  H      -3.627671     -5.269419      0.169785
  H      -2.036372     -3.590404      1.140097
  H      -1.722050     -3.840892     -0.598289
  H      -2.250830      0.452780     -1.267924
  H      -2.151673      1.463463      1.521466
  H      -0.344239      2.442588      0.134159
  H      -1.539847      3.699432      0.557066
  H      -1.537648      2.985898     -1.075718
  H      -4.061964      2.321018     -0.727392
  H      -4.487521      1.322054      0.688340
  H      -4.008817      3.028040      0.906754
  H       1.124930     -1.357013     -2.524239
  H       3.242165     -0.044161     -2.767307
  H       6.891271      1.037926     -0.436762
  H       5.730592      0.335729      0.728804
  H       5.927752     -0.398025     -0.901753
  H       3.906913      1.224999      2.024894
  H       3.135109      2.654155      1.327949
  H       2.216795      1.597213      2.438457
  H       0.759196      0.031733      1.525201
41
Coordinates from ORCA-job opt E -1527.698666933318
  C      -3.778276     -4.198110      0.004168
  C      -2.460745     -3.472136      0.131327
  O      -2.679644     -2.073330     -0.126572
  P      -1.655679     -0.974941      0.421039
  O      -1.478011     -0.920826      1.896738
  N      -2.122784      0.428554     -0.262932
  C      -2.347670      1.686750      0.456840
  C      -1.376169      2.759634     -0.027193
  C      -3.804608      2.122423      0.332912
  O      -0.317779     -1.478221     -0.388266
  C       0.829416     -0.729633     -0.483496
  C       1.511497     -0.754147     -1.697538
  C       2.684128     -0.016367     -1.822097
  C       3.176419      0.749000     -0.758930
  S       4.670828      1.693070     -1.003741
  C       5.910402      0.551954     -0.333574
  C       2.478917      0.783427      0.465513
  C       2.953961      1.602184      1.636272
  C       1.310055      0.024131      0.587749
  H      -4.201959     -4.064401     -1.001997
  H      -4.502360     -3.825723      0.743333
  H      -3.627225     -5.273664      0.175759
  H      -2.038248     -3.590941      1.142153
  H      -1.722330     -3.845945     -0.595207
  H      -2.259953      0.446509     -1.270435
  H      -2.133839      1.467812      1.514234
  H      -0.334546      2.429715      0.103186
  H      -1.517853      3.695628      0.533536
  H      -1.537687      2.975130     -1.096067
  H      -4.061194      2.325740     -0.719610
  H      -4.478967      1.337485      0.706011
  H      -3.986863      3.041404      0.909982
  H       1.117600     -1.344380     -2.527240
  H       3.232120     -0.026757     -2.767696
  H       6.884797      1.049465     -0.435992
  H       5.726946      0.341824      0.729145
  H       5.922969     -0.386871     -0.903845
  H       3.908238      1.217774      2.029280
  H       3.127704      2.647770      1.343682
  H       2.218148      1.580064      2.451126
  H       0.760248      0.018944      1.531446
41
Coordinates from ORCA-job opt E -1527.698680699473
  C      -3.776988     -4.222492      0.017040
  C      -2.462895     -3.488466      0.132111
  O      -2.689125     -2.091903     -0.133157
  P      -1.673593     -0.988422      0.417776
  O      -1.499762     -0.929439      1.894184
  N      -2.151443      0.409356     -0.271454
  C      -2.309670      1.687573      0.430355
  C      -1.322650      2.719769     -0.108491
  C      -3.755218      2.169418      0.348206
  O      -0.328423     -1.490056     -0.382245
  C       0.812918     -0.731655     -0.473722
  C       1.480556     -0.719470     -1.695885
  C       2.645811      0.030608     -1.815532
  C       3.144748      0.773043     -0.739185
  S       4.628370      1.735466     -0.979077
  C       5.882637      0.595785     -0.334322
  C       2.462208      0.770438      0.494002
  C       2.943081      1.565741      1.678621
  C       1.301675     -0.001876      0.610549
  H      -4.206709     -4.098988     -0.988004
  H      -4.499914     -3.848660      0.756742
  H      -3.618769     -5.295893      0.195721
  H      -2.033731     -3.600038      1.140990
  H      -1.727046     -3.863373     -0.596604
  H      -2.299697      0.418102     -1.277582
  H      -2.067191      1.482338      1.484363
  H      -0.287930      2.358238     -0.010889
  H      -1.412485      3.669693      0.439408
  H      -1.517361      2.921886     -1.174561
  H      -4.041865      2.358654     -0.699233
  H      -4.442484      1.417018      0.762751
  H      -3.885243      3.106621      0.910001
  H       1.080713     -1.290463     -2.536278
  H       3.182264      0.049022     -2.767634
  H       6.852188      1.102676     -0.437340
  H       5.709079      0.369972      0.726951
  H       5.897840     -0.335285     -0.917235
  H       3.909108      1.188170      2.048831
  H       3.094525      2.621209      1.409643
  H       2.220034      1.511036      2.503412
  H       0.762438     -0.035352      1.559778
41
Coordinates from ORCA-job opt E -1527.698680970013
  C      -3.778834     -4.218825      0.015295
  C      -2.464406     -3.486526      0.137504
  O      -2.688172     -2.089770     -0.128694
  P      -1.670892     -0.986884      0.420740
  O      -1.498392     -0.926589      1.897253
  N      -2.143903      0.411013     -0.270903
  C      -2.317255      1.686076      0.433156
  C      -1.325352      2.723761     -0.085435
  C      -3.763216      2.162814      0.330740
  O      -0.325786     -1.491528     -0.377513
  C       0.815078     -0.732764     -0.471883
  C       1.480649     -0.721995     -1.695233
  C       2.645635      0.027904     -1.817799
  C       3.146405      0.771483     -0.743030
  S       4.629873      1.733229     -0.986367
  C       5.884871      0.595076     -0.340406
  C       2.465920      0.770359      0.491273
  C       2.949705      1.566446      1.674169
  C       1.305418     -0.001588      0.610647
  H      -4.203229     -4.094411     -0.991900
  H      -4.505072     -3.844141      0.751337
  H      -3.622956     -5.292476      0.194585
  H      -2.040944     -3.598235      1.148800
  H      -1.725004     -3.862328     -0.587178
  H      -2.283636      0.421710     -1.278264
  H      -2.090514      1.477436      1.490007
  H      -0.290930      2.365851      0.027914
  H      -1.427910      3.671009      0.464938
  H      -1.503172      2.929651     -1.153741
  H      -4.034122      2.356649     -0.720086
  H      -4.453577      1.405090      0.730168
  H      -3.905968      3.096346      0.895571
  H       1.079433     -1.294129     -2.534215
  H       3.180479      0.045218     -2.770833
  H       6.854421      1.101329     -0.446642
  H       5.713280      0.372443      0.721881
  H       5.898744     -0.337734     -0.920590
  H       3.914554      1.186212      2.044777
  H       3.104413      2.620819      1.402843
  H       2.226697      1.516118      2.499302
  H       0.767670     -0.034120      1.560815
41
Coordinates from ORCA-job opt E -1527.698692686399
  C      -3.778605     -4.226713      0.026586
  C      -2.465126     -3.491964      0.144158
  O      -2.692363     -2.096039     -0.123685
  P      -1.676701     -0.990163      0.422738
  O      -1.505377     -0.923378      1.899070
  N      -2.152380      0.403544     -0.275215
  C      -2.310035      1.685690      0.419934
  C      -1.303684      2.707347     -0.102437
  C      -3.749544      2.180006      0.311042
  O      -0.328914     -1.497030     -0.370506
  C       0.808898     -0.733572     -0.465454
  C       1.461884     -0.700825     -1.695144
  C       2.623398      0.054602     -1.817172
  C       3.132490      0.782534     -0.735591
  S       4.609885      1.753664     -0.978941
  C       5.874110      0.617246     -0.348137
  C       2.464159      0.759694      0.505238
  C       2.955854      1.540278      1.695143
  C       1.307545     -0.018204      0.623691
  H      -4.206043     -4.104687     -0.979596
  H      -4.503501     -3.852135      0.763993
  H      -3.620238     -5.299780      0.207223
  H      -2.038902     -3.601120      1.154571
  H      -1.726874     -3.867556     -0.581764
  H      -2.287660      0.410417     -1.283251
  H      -2.088756      1.480759      1.478695
  H      -0.274222      2.336587      0.014744
  H      -1.394738      3.658781      0.442785
  H      -1.476868      2.909938     -1.172139
  H      -4.015492      2.370849     -0.741606
  H      -4.450192      1.433414      0.713387
  H      -3.881398      3.118784      0.869763
  H       1.053688     -1.260233     -2.539318
  H       3.148711      0.088857     -2.775011
  H       6.840582      1.128816     -0.456738
  H       5.710071      0.386787      0.713651
  H       5.888877     -0.311586     -0.934614
  H       3.925097      1.158290      2.052137
  H       3.104291      2.598947      1.437394
  H       2.240170      1.475774      2.525650
  H       0.777901     -0.066621      1.577728
41
Coordinates from ORCA-job opt E -1527.698714606059
  C      -3.775726     -4.238795      0.047623
  C      -2.465007     -3.498483      0.161079
  O      -2.700293     -2.103965     -0.107344
  P      -1.685091     -0.992038      0.428143
  O      -1.512313     -0.909217      1.903140
  N      -2.166691      0.392524     -0.283732
  C      -2.302442      1.687155      0.393596
  C      -1.273955      2.682847     -0.135238
  C      -3.731659      2.206342      0.269509
  O      -0.334510     -1.504308     -0.358449
  C       0.798943     -0.734014     -0.453414
  C       1.427112     -0.658069     -1.693937
  C       2.583525      0.105949     -1.813370
  C       3.110422      0.800768     -0.718639
  S       4.576587      1.789270     -0.960915
  C       5.859312      0.653901     -0.366575
  C       2.465276      0.735722      0.533420
  C       2.972358      1.484447      1.737120
  C       1.314537     -0.051614      0.648537
  H      -4.206933     -4.118759     -0.957049
  H      -4.499546     -3.867312      0.787509
  H      -3.611990     -5.311052      0.228137
  H      -2.035892     -3.604049      1.170578
  H      -1.726766     -3.870925     -0.566243
  H      -2.294334      0.390222     -1.292812
  H      -2.091089      1.490947      1.456055
  H      -0.252623      2.293046     -0.009204
  H      -1.348671      3.641536      0.399705
  H      -1.438142      2.877545     -1.207743
  H      -3.988083      2.389211     -0.786845
  H      -4.447611      1.477261      0.676521
  H      -3.848730      3.154168      0.815931
  H       1.003938     -1.190577     -2.547957
  H       3.090288      0.173399     -2.779295
  H       6.819489      1.176109     -0.479304
  H       5.712068      0.404050      0.693105
  H       5.874632     -0.264484     -0.969075
  H       3.947878      1.096511      2.069303
  H       3.112928      2.550459      1.506886
  H       2.269140      1.394084      2.575713
  H       0.799665     -0.129812      1.608534
41
Coordinates from ORCA-job opt E -1527.698737449762
  C      -3.774678     -4.249157      0.067033
  C      -2.466829     -3.504047      0.182304
  O      -2.708133     -2.111078     -0.088853
  P      -1.692874     -0.993335      0.435097
  O      -1.520176     -0.892748      1.908599
  N      -2.178189      0.381579     -0.292939
  C      -2.294780      1.688502      0.364946
  C      -1.245487      2.658694     -0.170029
  C      -3.713884      2.229610      0.223002
  O      -0.339488     -1.512389     -0.343373
  C       0.789258     -0.734545     -0.438556
  C       1.389996     -0.612442     -1.688743
  C       2.540576      0.161163     -1.805605
  C       3.087186      0.820427     -0.698697
  S       4.540467      1.828260     -0.939532
  C       5.844202      0.694667     -0.389162
  C       2.468239      0.709501      0.563796
  C       2.994209      1.422090      1.781082
  C       1.323828     -0.087796      0.675430
  H      -4.204620     -4.131328     -0.938294
  H      -4.500677     -3.879818      0.805722
  H      -3.607255     -5.320588      0.248880
  H      -2.039939     -3.605441      1.193103
  H      -1.725217     -3.874346     -0.542460
  H      -2.297222      0.368784     -1.302994
  H      -2.093896      1.502721      1.431313
  H      -0.232232      2.251923     -0.032991
  H      -1.306006      3.624909      0.353035
  H      -1.399624      2.843334     -1.245719
  H      -3.959912      2.402577     -0.837401
  H      -4.444049      1.517527      0.634362
  H      -3.818332      3.186524      0.755806
  H       0.950339     -1.116315     -2.551645
  H       3.026658      0.264408     -2.778870
  H       6.796879      1.229088     -0.507207
  H       5.717719      0.422382      0.667479
  H       5.859073     -0.211181     -1.010178
  H       3.975990      1.027133      2.084902
  H       3.127946      2.495107      1.581527
  H       2.305368      1.303819      2.627974
  H       0.825566     -0.198178      1.640862
41
Coordinates from ORCA-job opt E -1527.698755144145
  C      -3.780038     -4.250735      0.075619
  C      -2.475187     -3.504811      0.217336
  O      -2.714179     -2.113093     -0.061435
  P      -1.694881     -0.991486      0.448053
  O      -1.526629     -0.865995      1.919315
  N      -2.175182      0.373041     -0.304333
  C      -2.289742      1.691632      0.331004
  C      -1.230859      2.646818     -0.212614
  C      -3.704699      2.236246      0.167368
  O      -0.340499     -1.522915     -0.319212
  C       0.784143     -0.737154     -0.413534
  C       1.355806     -0.566602     -1.671151
  C       2.498865      0.219399     -1.784276
  C       3.065579      0.840853     -0.666093
  S       4.501548      1.873554     -0.903949
  C       5.836416      0.739828     -0.434430
  C       2.476049      0.678737      0.605425
  C       3.027429      1.345802      1.836837
  C       1.338154     -0.129081      0.712436
  H      -4.189208     -4.132492     -0.938038
  H      -4.519984     -3.881806      0.800309
  H      -3.616202     -5.322002      0.261163
  H      -2.070354     -3.602467      1.237408
  H      -1.717543     -3.874922     -0.490423
  H      -2.285864      0.344908     -1.314909
  H      -2.096342      1.520991      1.401197
  H      -0.221256      2.236085     -0.060986
  H      -1.289999      3.621849      0.293686
  H      -1.375317      2.813987     -1.292333
  H      -3.941555      2.392704     -0.897440
  H      -4.440031      1.533087      0.584218
  H      -3.809606      3.202171      0.683358
  H       0.900095     -1.041914     -2.541688
  H       2.963063      0.360946     -2.763319
  H       6.777196      1.292443     -0.562454
  H       5.748258      0.428014      0.614881
  H       5.845450     -0.142674     -1.088055
  H       4.014651      0.939166      2.104927
  H       3.159310      2.425355      1.674935
  H       2.355876      1.196093      2.692357
  H       0.857267     -0.273564      1.681844
41
Coordinates from ORCA-job opt E -1527.698788333096
  C      -3.781973     -4.268939      0.097892
  C      -2.479956     -3.517078      0.234508
  O      -2.726884     -2.126883     -0.045572
  P      -1.711289     -0.999114      0.457249
  O      -1.549532     -0.854221      1.927211
  N      -2.196372      0.353714     -0.313570
  C      -2.264217      1.689320      0.293140
  C      -1.172831      2.597212     -0.267296
  C      -3.659418      2.277905      0.114388
  O      -0.349347     -1.537538     -0.293676
  C       0.767040     -0.739096     -0.387034
  C       1.303921     -0.510247     -1.650481
  C       2.436745      0.291378     -1.759167
  C       3.026140      0.871281     -0.630470
  S       4.442168      1.932363     -0.863717
  C       5.805675      0.803977     -0.469554
  C       2.470828      0.650248      0.648052
  C       3.043555      1.275107      1.891707
  C       1.343818     -0.173499      0.749370
  H      -4.195179     -4.153330     -0.914345
  H      -4.520725     -3.902779      0.825100
  H      -3.612651     -5.339268      0.283875
  H      -2.071917     -3.611028      1.253605
  H      -1.722619     -3.884211     -0.474910
  H      -2.299805      0.311028     -1.324460
  H      -2.078688      1.534411      1.367116
  H      -0.177916      2.155207     -0.106455
  H      -1.198949      3.583122      0.220490
  H      -1.310389      2.748687     -1.350183
  H      -3.889239      2.419767     -0.953956
  H      -4.418434      1.608711      0.544197
  H      -3.731754      3.257566      0.609555
  H       0.830044     -0.953143     -2.528320
  H       2.874850      0.477849     -2.742616
  H       6.734169      1.375199     -0.604958
  H       5.752662      0.455834      0.570581
  H       5.809416     -0.055864     -1.152675
  H       4.040090      0.868683      2.122297
  H       3.161358      2.361333      1.768531
  H       2.392768      1.085698      2.755313
  H       0.884835     -0.359359      1.722247
41
Coordinates from ORCA-job opt E -1527.698769878040
  C      -3.782618     -4.281967      0.057840
  C      -2.483061     -3.526338      0.197409
  O      -2.729148     -2.133627     -0.073362
  P      -1.724816     -1.012811      0.459568
  O      -1.586379     -0.886922      1.935748
  N      -2.197072      0.351124     -0.300090
  C      -2.229899      1.683409      0.313717
  C      -1.139216      2.581678     -0.265603
  C      -3.619170      2.299096      0.171460
  O      -0.352746     -1.551831     -0.273331
  C       0.762840     -0.752430     -0.366731
  C       1.330396     -0.570054     -1.624838
  C       2.458019      0.236246     -1.739921
  C       3.016530      0.866313     -0.621484
  S       4.429837      1.929062     -0.865215
  C       5.795185      0.793643     -0.500250
  C       2.437341      0.686223      0.651789
  C       2.980234      1.359905      1.884314
  C       1.315015     -0.140979      0.759155
  H      -4.197522     -4.161666     -0.953902
  H      -4.523300     -3.922563      0.787155
  H      -3.609781     -5.353299      0.235775
  H      -2.072831     -3.629481      1.215141
  H      -1.727122     -3.888794     -0.516782
  H      -2.315918      0.313418     -1.309709
  H      -2.024997      1.526358      1.383840
  H      -0.144555      2.132346     -0.123583
  H      -1.146629      3.568110      0.222523
  H      -1.295690      2.734604     -1.346181
  H      -3.870181      2.447689     -0.891761
  H      -4.383685      1.645402      0.617351
  H      -3.663458      3.278885      0.670563
  H       0.884081     -1.054795     -2.495602
  H       2.916978      0.388837     -2.719931
  H       6.723207      1.363052     -0.650318
  H       5.760564      0.439226      0.539580
  H       5.782978     -0.063786     -1.187153
  H       3.978003      0.973357      2.143662
  H       3.085738      2.442695      1.725528
  H       2.319159      1.190777      2.745084
  H       0.843689     -0.300112      1.731550
41
Coordinates from ORCA-job opt E -1527.698832295900
  C      -3.782308     -4.276502      0.089064
  C      -2.482777     -3.521259      0.230831
  O      -2.729409     -2.131218     -0.050616
  P      -1.721447     -1.002681      0.462935
  O      -1.579219     -0.853862      1.935576
  N      -2.196530      0.349053     -0.317006
  C      -2.247437      1.689743      0.278681
  C      -1.151971      2.585689     -0.294114
  C      -3.638263      2.291729      0.104536
  O      -0.350662     -1.548247     -0.265884
  C       0.763350     -0.745444     -0.358166
  C       1.297625     -0.510418     -1.621766
  C       2.422157      0.301865     -1.730892
  C       3.008991      0.883658     -0.601293
  S       4.415001      1.958264     -0.833780
  C       5.790469      0.822182     -0.512223
  C       2.461909      0.650147      0.677770
  C       3.041231      1.266356      1.923246
  C       1.340845     -0.180632      0.778529
  H      -4.192444     -4.160644     -0.924815
  H      -4.525283     -3.912790      0.813626
  H      -3.611213     -5.346876      0.273703
  H      -2.078394     -3.616345      1.251545
  H      -1.722537     -3.888203     -0.476135
  H      -2.303037      0.298941     -1.327445
  H      -2.058651      1.544877      1.353533
  H      -0.157962      2.142719     -0.130639
  H      -1.172487      3.577478      0.182028
  H      -1.291657      2.725151     -1.378639
  H      -3.872213      2.426756     -0.964127
  H      -4.403217      1.635266      0.544462
  H      -3.698975      3.276295      0.591883
  H       0.827827     -0.956733     -2.500391
  H       2.855916      0.496067     -2.714950
  H       6.713398      1.399950     -0.660178
  H       5.770467      0.443873      0.519101
  H       5.775136     -0.018685     -1.218876
  H       4.042125      0.861618      2.139375
  H       3.152367      2.354232      1.809430
  H       2.400423      1.064499      2.791823
  H       0.888856     -0.375867      1.753264
41
Coordinates from ORCA-job opt E -1527.698836861033
  C      -3.776231     -4.271862      0.101253
  C      -2.473687     -3.518250      0.221938
  O      -2.720277     -2.129554     -0.064726
  P      -1.716210     -0.998930      0.452233
  O      -1.570813     -0.858239      1.925436
  N      -2.197489      0.355279     -0.318525
  C      -2.264155      1.690540      0.287043
  C      -1.177108      2.601689     -0.277064
  C      -3.661224      2.278393      0.115179
  O      -0.345895     -1.535228     -0.283393
  C       0.768927     -0.734428     -0.375633
  C       1.309462     -0.508481     -1.638327
  C       2.438645      0.297381     -1.746970
  C       3.023839      0.881894     -0.618064
  S       4.444323      1.938221     -0.846365
  C       5.798322      0.788880     -0.483623
  C       2.468673      0.660325      0.659442
  C       3.047537      1.279090      1.903813
  C       1.342767     -0.164176      0.760030
  H      -4.198138     -4.163058     -0.908567
  H      -4.510420     -3.901273      0.831257
  H      -3.604795     -5.341145      0.291783
  H      -2.056094     -3.608716      1.237733
  H      -1.723240     -3.891246     -0.492333
  H      -2.306444      0.310712     -1.328972
  H      -2.076243      1.539286      1.361189
  H      -0.178806      2.168045     -0.114592
  H      -1.209074      3.589890      0.205720
  H      -1.316340      2.747297     -1.360842
  H      -3.894843      2.419408     -0.952778
  H      -4.419611      1.610257      0.548674
  H      -3.733595      3.258237      0.610328
  H       0.841195     -0.956983     -2.516645
  H       2.877786      0.483893     -2.730167
  H       6.731840      1.352261     -0.619807
  H       5.750859      0.424256      0.551635
  H       5.785418     -0.060505     -1.180003
  H       4.046057      0.870431      2.124071
  H       3.164671      2.365974      1.786069
  H       2.403403      1.083828      2.771341
  H       0.887007     -0.353394      1.734235
41
Coordinates from ORCA-job opt E -1527.698855589525
  C      -3.777930     -4.272989      0.104823
  C      -2.475812     -3.519291      0.229699
  O      -2.719736     -2.131784     -0.064403
  P      -1.718444     -0.999538      0.453799
  O      -1.581107     -0.852422      1.927260
  N      -2.195501      0.352019     -0.324785
  C      -2.259953      1.690168      0.273927
  C      -1.169780      2.596563     -0.292291
  C      -3.655294      2.280642      0.096041
  O      -0.344415     -1.538848     -0.271882
  C       0.767892     -0.733949     -0.362736
  C       1.300727     -0.492860     -1.625795
  C       2.425998      0.318773     -1.731879
  C       3.015419      0.892699     -0.599812
  S       4.431181      1.956273     -0.823929
  C       5.791604      0.800648     -0.508290
  C       2.469190      0.654198      0.678435
  C       3.056437      1.257499      1.926467
  C       1.346209     -0.174572      0.776089
  H      -4.193759     -4.168400     -0.908005
  H      -4.516324     -3.898803      0.828769
  H      -3.608212     -5.341529      0.300975
  H      -2.064087     -3.605893      1.248247
  H      -1.721497     -3.895903     -0.478643
  H      -2.304304      0.301898     -1.334991
  H      -2.074678      1.544225      1.349230
  H      -0.172187      2.163583     -0.123198
  H      -1.202882      3.588036      0.183665
  H      -1.304812      2.734893     -1.377576
  H      -3.886207      2.416899     -0.973139
  H      -4.416361      1.616501      0.531125
  H      -3.726976      3.263027      0.586320
  H       0.829855     -0.934232     -2.506363
  H       2.858814      0.518092     -2.715406
  H       6.722316      1.368206     -0.646582
  H       5.760973      0.412585      0.519076
  H       5.768631     -0.032952     -1.223295
  H       4.057277      0.847007      2.132470
  H       3.171608      2.345974      1.822400
  H       2.419841      1.049346      2.796586
  H       0.896285     -0.375787      1.750601
41
Coordinates from ORCA-job opt E -1527.698864690678
  C      -3.773588     -4.275001      0.117087
  C      -2.472402     -3.518870      0.236813
  O      -2.716288     -2.133867     -0.068709
  P      -1.720921     -0.997478      0.450671
  O      -1.591481     -0.844294      1.924479
  N      -2.196794      0.350464     -0.335184
  C      -2.262345      1.690645      0.257862
  C      -1.169608      2.594897     -0.307340
  C      -3.656658      2.281750      0.072184
  O      -0.342092     -1.536649     -0.265251
  C       0.767695     -0.727549     -0.352388
  C       1.292682     -0.467270     -1.614863
  C       2.415214      0.348702     -1.715834
  C       3.010370      0.906715     -0.578884
  S       4.426498      1.971823     -0.794283
  C       5.784969      0.800290     -0.533047
  C       2.472877      0.648070      0.699056
  C       3.069669      1.231185      1.952221
  C       1.351475     -0.183303      0.791087
  H      -4.188636     -4.179212     -0.897010
  H      -4.513276     -3.895709      0.837119
  H      -3.602843     -5.341757      0.321960
  H      -2.061314     -3.597589      1.256308
  H      -1.717292     -3.900854     -0.467903
  H      -2.307565      0.294676     -1.344865
  H      -2.081585      1.549476      1.334521
  H      -0.172147      2.165047     -0.129180
  H      -1.207333      3.589371      0.162063
  H      -1.297970      2.726025     -1.394360
  H      -3.883092      2.414379     -0.998450
  H      -4.420185      1.619683      0.506387
  H      -3.730270      3.265808      0.558922
  H       0.818239     -0.897660     -2.499012
  H       2.841398      0.564198     -2.698895
  H       6.717038      1.366751     -0.666979
  H       5.765718      0.381243      0.482450
  H       5.746971     -0.011036     -1.272686
  H       4.072608      0.817872      2.142037
  H       3.183444      2.321290      1.865386
  H       2.440887      1.007775      2.824318
  H       0.907933     -0.400036      1.765196
41
Coordinates from ORCA-job opt E -1527.698868969881
  C      -3.762570     -4.281993      0.150117
  C      -2.463930     -3.519042      0.252676
  O      -2.713247     -2.139045     -0.071125
  P      -1.727908     -0.992966      0.444589
  O      -1.606932     -0.825461      1.917743
  N      -2.207775      0.345349     -0.355700
  C      -2.265691      1.692238      0.222058
  C      -1.161876      2.582649     -0.344257
  C      -3.653887      2.292791      0.019961
  O      -0.341539     -1.531098     -0.257272
  C       0.763817     -0.714501     -0.335618
  C       1.267949     -0.407064     -1.595874
  C       2.385531      0.417088     -1.684840
  C       2.996788      0.935108     -0.537672
  S       4.412617      2.004650     -0.734260
  C       5.766682      0.809872     -0.572621
  C       2.480715      0.628494      0.738471
  C       3.098238      1.165855      2.002121
  C       1.362829     -0.208663      0.817614
  H      -4.183431     -4.201613     -0.862980
  H      -4.500247     -3.896363      0.868904
  H      -3.585972     -5.345213      0.368108
  H      -2.047512     -3.582807      1.271084
  H      -1.710894     -3.908184     -0.450389
  H      -2.321401      0.277492     -1.364314
  H      -2.094032      1.561789      1.301497
  H      -0.168258      2.150625     -0.150019
  H      -1.199127      3.583608      0.111323
  H      -1.278327      2.699608     -1.434249
  H      -3.871391      2.416411     -1.053633
  H      -4.425934      1.641037      0.454901
  H      -3.723671      3.282138      0.496448
  H       0.781988     -0.808323     -2.487492
  H       2.795018      0.670931     -2.665872
  H       6.701096      1.375234     -0.694507
  H       5.764756      0.332895      0.417258
  H       5.703480      0.043414     -1.357074
  H       4.106238      0.749860      2.156495
  H       3.206416      2.258925      1.955107
  H       2.486772      0.906402      2.876627
  H       0.934623     -0.462130      1.789671
41
Coordinates from ORCA-job opt E -1527.698869523652
  C      -3.763751     -4.283061      0.153254
  C      -2.465384     -3.519572      0.255136
  O      -2.716383     -2.139270     -0.066652
  P      -1.728377     -0.993470      0.444795
  O      -1.601949     -0.824743      1.917232
  N      -2.210504      0.344201     -0.355267
  C      -2.262648      1.692227      0.221096
  C      -1.156164      2.577861     -0.347406
  C      -3.648802      2.297568      0.020006
  O      -0.344182     -1.532918     -0.261132
  C       0.762146     -0.717725     -0.339219
  C       1.263809     -0.406360     -1.599499
  C       2.381138      0.418209     -1.688093
  C       2.994107      0.933359     -0.540533
  S       4.406379      2.007540     -0.737286
  C       5.765519      0.819877     -0.565046
  C       2.480216      0.623046      0.735673
  C       3.097127      1.160063      1.999762
  C       1.363120     -0.215199      0.814368
  H      -4.186362     -4.201052     -0.858948
  H      -4.500340     -3.899304      0.874120
  H      -3.586037     -5.346541      0.369048
  H      -2.047688     -3.583981      1.272943
  H      -1.712995     -3.907120     -0.449437
  H      -2.324643      0.276210     -1.363824
  H      -2.090126      1.562066      1.300442
  H      -0.164157      2.141334     -0.155200
  H      -1.188045      3.578913      0.108383
  H      -1.274231      2.695465     -1.437136
  H      -3.867205      2.420760     -1.053443
  H      -4.422624      1.649169      0.456696
  H      -3.713882      3.287773      0.495297
  H       0.775522     -0.804256     -2.491332
  H       2.788120      0.675917     -2.669130
  H       6.697790      1.388728     -0.686855
  H       5.762622      0.348302      0.427386
  H       5.708119      0.048986     -1.345573
  H       4.106258      0.746912      2.154004
  H       3.201871      2.253539      1.954141
  H       2.486260      0.898212      2.873957
  H       0.936354     -0.471664      1.786276
41
Coordinates from ORCA-job opt E -1527.698885114086
  C      -3.761149     -4.289141      0.180020
  C      -2.464511     -3.521384      0.270966
  O      -2.721849     -2.143314     -0.056613
  P      -1.733884     -0.992404      0.443344
  O      -1.601674     -0.811310      1.913541
  N      -2.223183      0.337545     -0.365779
  C      -2.256478      1.692888      0.195939
  C      -1.136013      2.556920     -0.378554
  C      -3.633235      2.315462     -0.015300
  O      -0.349731     -1.534687     -0.262086
  C       0.755283     -0.716889     -0.334737
  C       1.237005     -0.366451     -1.592446
  C       2.350219      0.464725     -1.672700
  C       2.977874      0.947961     -0.519284
  S       4.381140      2.035977     -0.704755
  C       5.749703      0.853323     -0.574485
  C       2.483843      0.597997      0.754694
  C       3.113814      1.103665      2.025260
  C       1.371228     -0.246896      0.824437
  H      -4.190588     -4.211687     -0.829594
  H      -4.494051     -3.905642      0.904706
  H      -3.578390     -5.351298      0.398087
  H      -2.041215     -3.578939      1.286796
  H      -1.714767     -3.909676     -0.435872
  H      -2.339097      0.261123     -1.373547
  H      -2.088419      1.571345      1.276984
  H      -0.150869      2.107944     -0.180031
  H      -1.154321      3.562592      0.067686
  H      -1.249818      2.665815     -1.469607
  H      -3.847563      2.429853     -1.090516
  H      -4.417074      1.683150      0.426847
  H      -3.684408      3.311811      0.448524
  H       0.735919     -0.738456     -2.488297
  H       2.740520      0.755244     -2.651288
  H       6.677594      1.430591     -0.689379
  H       5.757678      0.357025      0.405711
  H       5.689414      0.102316     -1.373874
  H       4.128110      0.695214      2.155786
  H       3.208542      2.198906      2.009462
  H       2.515851      0.812974      2.899228
  H       0.958551     -0.534191      1.793730
41
Coordinates from ORCA-job opt E -1527.698879876984
  C      -3.764159     -4.284939      0.169813
  C      -2.466106     -3.520241      0.266444
  O      -2.719595     -2.141099     -0.059038
  P      -1.729890     -0.992808      0.444029
  O      -1.598364     -0.816392      1.914819
  N      -2.216145      0.340539     -0.361235
  C      -2.259814      1.692825      0.207015
  C      -1.145315      2.567124     -0.363412
  C      -3.640858      2.306492     -0.001942
  O      -0.347168     -1.534921     -0.263736
  C       0.759071     -0.718998     -0.338562
  C       1.249035     -0.384599     -1.597467
  C       2.363945      0.443995     -1.680926
  C       2.985325      0.940348     -0.529683
  S       4.390929      2.024409     -0.719618
  C       5.757955      0.842512     -0.569282
  C       2.483182      0.606287      0.745336
  C       3.106991      1.125018      2.013626
  C       1.368890     -0.236192      0.818598
  H      -4.189948     -4.204568     -0.841111
  H      -4.498613     -3.900991      0.892680
  H      -3.584741     -5.347931      0.386536
  H      -2.046073     -3.580700      1.283465
  H      -1.714988     -3.908768     -0.438823
  H      -2.331006      0.267953     -1.369397
  H      -2.091052      1.567338      1.287508
  H      -0.157244      2.123680     -0.167106
  H      -1.170333      3.570621      0.087301
  H      -1.259974      2.680203     -1.453951
  H      -3.855891      2.423527     -1.076720
  H      -4.420415      1.667281      0.437825
  H      -3.699046      3.300728      0.465596
  H       0.752744     -0.766483     -2.491812
  H       2.761077      0.721379     -2.660587
  H       6.686565      1.418410     -0.685213
  H       5.760644      0.356417      0.416037
  H       5.702198      0.083152     -1.361056
  H       4.119325      0.715281      2.154833
  H       3.205152      2.219737      1.985995
  H       2.503144      0.845907      2.887296
  H       0.950568     -0.511533      1.788928
41
Coordinates from ORCA-job opt E -1527.698880631510
  C      -3.764559     -4.286385      0.174557
  C      -2.466612     -3.521296      0.269517
  O      -2.720573     -2.142628     -0.057647
  P      -1.731426     -0.993385      0.444346
  O      -1.600487     -0.814713      1.914910
  N      -2.218186      0.338571     -0.362958
  C      -2.257940      1.692332      0.202170
  C      -1.138861      2.561436     -0.367236
  C      -3.636199      2.310541     -0.011581
  O      -0.347972     -1.536234     -0.261744
  C       0.757310     -0.718854     -0.336169
  C       1.242543     -0.376566     -1.594772
  C       2.356185      0.453852     -1.677142
  C       2.980888      0.944167     -0.525092
  S       4.384282      2.031369     -0.713415
  C       5.753561      0.850831     -0.573304
  C       2.483565      0.601989      0.749678
  C       3.110781      1.114270      2.018907
  C       1.370545     -0.242248      0.821711
  H      -4.191014     -4.207108     -0.836177
  H      -4.498659     -3.901859      0.897480
  H      -3.584770     -5.349125      0.392212
  H      -2.046023     -3.580325      1.286394
  H      -1.715801     -3.910570     -0.435663
  H      -2.332075      0.264447     -1.371137
  H      -2.092396      1.568634      1.283370
  H      -0.152821      2.114901     -0.167611
  H      -1.161407      3.565949      0.081344
  H      -1.250358      2.672664     -1.458302
  H      -3.848307      2.425586     -1.087162
  H      -4.419241      1.675568      0.428122
  H      -3.691621      3.306239      0.453171
  H       0.743534     -0.753628     -2.489651
  H       2.749641      0.737594     -2.656463
  H       6.680941      1.428958     -0.687981
  H       5.759341      0.358894      0.409111
  H       5.697147      0.096101     -1.369442
  H       4.124012      0.704983      2.154855
  H       3.207469      2.209255      1.997222
  H       2.509905      0.829635      2.892852
  H       0.955657     -0.523841      1.791725
41
Coordinates from ORCA-job opt E -1527.698891068063
  C      -3.765350     -4.286756      0.176833
  C      -2.467338     -3.521739      0.271542
  O      -2.721003     -2.143327     -0.056900
  P      -1.731847     -0.993799      0.444443
  O      -1.601072     -0.814051      1.914907
  N      -2.218483      0.337648     -0.363825
  C      -2.256750      1.692061      0.199815
  C      -1.135545      2.558944     -0.368829
  C      -3.633728      2.312218     -0.016561
  O      -0.348291     -1.537368     -0.261028
  C       0.756755     -0.719528     -0.335070
  C       1.239855     -0.373415     -1.593449
  C       2.352588      0.458254     -1.675149
  C       2.978573      0.945888     -0.522639
  S       4.380426      2.035222     -0.709881
  C       5.751368      0.855951     -0.575820
  C       2.483630      0.599569      0.751905
  C       3.112490      1.108633      2.021601
  C       1.371378     -0.245727      0.823207
  H      -4.191591     -4.207972     -0.834043
  H      -4.499590     -3.901728      0.899358
  H      -3.585746     -5.349407      0.395079
  H      -2.047039     -3.579957      1.288593
  H      -1.716404     -3.911770     -0.433104
  H      -2.332197      0.262776     -1.371981
  H      -2.092997      1.569306      1.281398
  H      -0.150389      2.111225     -0.167443
  H      -1.157264      3.563956      0.078684
  H      -1.245324      2.669214     -1.460183
  H      -3.844332      2.425862     -1.092595
  H      -4.418538      1.679553      0.423333
  H      -3.687944      3.308810      0.446443
  H       0.739732     -0.748234     -2.488658
  H       2.744239      0.745329     -2.654230
  H       6.677816      1.435844     -0.689203
  H       5.758882      0.360170      0.404665
  H       5.695192      0.104227     -1.374828
  H       4.126211      0.699687      2.154950
  H       3.208332      2.203752      2.002969
  H       2.513113      0.821189      2.895677
  H       0.958183     -0.530507      1.793025
