42
Coordinates from ORCA-job opt E -1378.793904594322
  C           2.56011991152548     -1.28262440747868     -2.24039701221169
  C           3.37925647207212     -0.69011775955778     -1.11902020548196
  O           2.84942063015705      0.60399628364318     -0.79270446583735
  P           3.32426501689494      1.34379911838107      0.56724290379421
  C           2.50950155454718      2.92919616794680      0.38471961264839
  O           4.80263355263400      1.36687494617975      0.77454180472039
  S           2.47328035431418      0.30091853265198      2.18084648396843
  C           0.66748547998812      0.47230973122454      1.95760454070440
  C           0.09635524906628     -0.23660112737771      0.72851718579613
  N          -1.34578570808916     -0.17103274199863      0.71673281088699
  C          -1.98234344261752      0.35000652702870     -0.49279247485975
  C          -1.86383160578559      1.87492519923872     -0.54366877222790
  C          -1.49511231303078     -0.27513321805395     -1.80870082257179
  C          -2.02343344297177     -1.23057724247811      1.46154671251929
  C          -2.27461443021494     -2.51426423034880      0.65973585639589
  C          -3.30610019982190     -0.72363891077665      2.12228706510279
  H           2.98562870465976     -2.25089594998501     -2.54127561653283
  H           2.56038601095175     -0.61783979301920     -3.11688028197967
  H           1.51938996883248     -1.44538309039087     -1.92430277027407
  H           4.43537051577315     -0.57316593127789     -1.40885299538953
  H           3.34362393892288     -1.33141879419005     -0.22155417122937
  H           1.43428691579280      2.80902724592206      0.19721224273316
  H           2.67039590228516      3.51752284348149      1.29783404844470
  H           2.97434133462815      3.43876717894649     -0.47158986911627
  H           0.25940581377198      0.03506148371678      2.88193203936837
  H           0.39187062308873      1.53715264240214      1.95558735245496
  H           0.49896856196064      0.24629078919229     -0.17201707866261
  H           0.47548100256005     -1.27890232887969      0.70188865417339
  H          -3.05374609650860      0.11036563479091     -0.39872711180502
  H          -0.80634654772932      2.18368034241244     -0.59545243472354
  H          -2.37300804363703      2.28770958841540     -1.42851398483521
  H          -2.30418043286017      2.32672176595969      0.35768291048908
  H          -0.46322947148901      0.02991424765102     -2.04474383820938
  H          -2.13128119200773      0.05357028120366     -2.64492446582282
  H          -1.52377185866748     -1.37352678144900     -1.77203467629746
  H          -1.33288218810687     -1.49406344941095      2.28134078629051
  H          -2.66933121461832     -3.30720038949077      1.31378810137297
  H          -1.34451988457657     -2.88760954368763      0.20291889837252
  H          -3.01028180380687     -2.34812603357113     -0.14371334389710
  H          -4.07306217366237     -0.45938171966258      1.37675394408464
  H          -3.09702473991903      0.17018934221605      2.72900148403498
  H          -3.73758071430585     -1.49649641952012      2.77670707360915
