42
Coordinates from ORCA-job opt E -1378.784118146938
  C       2.943727     -0.682687     -2.778394
  C       3.651993     -0.217784     -1.523294
  O       2.822989      0.720651     -0.855143
  P       3.251939      1.135075      0.650750
  C       2.400698      2.692572      0.867325
  O       4.740560      1.292961      0.782995
  S       2.534030     -0.280638      2.007401
  C       0.734565     -0.054330      2.091788
  C       0.033002     -0.437257      0.778240
  N      -1.401626     -0.092990      0.771177
  C      -1.969743      0.113719     -0.579680
  C      -1.699596      1.565062     -1.002783
  C      -1.480114     -0.842154     -1.677260
  C      -2.222836     -0.917738      1.683566
  C      -2.602123     -2.305252      1.158578
  C      -3.480366     -0.150193      2.117931
  H       3.560353     -1.395051     -3.333485
  H       2.711297      0.166972     -3.428780
  H       1.991934     -1.161773     -2.527339
  H       4.600039      0.263924     -1.781655
  H       3.852847     -1.071118     -0.867899
  H       1.327800      2.586519      0.686902
  H       2.547480      3.071929      1.882294
  H       2.789398      3.434362      0.163765
  H       0.382916     -0.675640      2.919711
  H       0.526608      0.988093      2.352753
  H       0.525661      0.122562     -0.020876
  H       0.182089     -1.501835      0.561111
  H      -3.060660      0.020123     -0.542073
  H      -0.631085      1.765717     -1.134299
  H      -2.197837      1.786088     -1.953304
  H      -2.088310      2.268305     -0.257560
  H      -0.424453     -0.688193     -1.921273
  H      -2.049640     -0.676962     -2.599036
  H      -1.615218     -1.890111     -1.397445
  H      -1.665084     -1.077655      2.612363
  H      -3.118253     -2.876396      1.938701
  H      -1.716373     -2.879986      0.870839
  H      -3.277285     -2.250213      0.298855
  H      -4.199487     -0.023415      1.303052
  H      -3.219018      0.842242      2.501973
  H      -3.992818     -0.687501      2.924061
42
Coordinates from ORCA-job opt E -1378.789947187773
  C       2.910847     -0.673669     -2.754008
  C       3.624269     -0.234327     -1.494363
  O       2.825670      0.751215     -0.830733
  P       3.249381      1.179277      0.675091
  C       2.340471      2.705109      0.898722
  O       4.733123      1.322899      0.837140
  S       2.538590     -0.268988      2.002188
  C       0.732678     -0.044672      2.034293
  C       0.038973     -0.464467      0.736143
  N      -1.374359     -0.113084      0.748750
  C      -1.951463      0.127404     -0.581358
  C      -1.648940      1.566982     -1.018620
  C      -1.532813     -0.859647     -1.679042
  C      -2.190095     -0.920563      1.664095
  C      -2.580431     -2.311085      1.147961
  C      -3.425535     -0.136816      2.121050
  H       3.516700     -1.408230     -3.302222
  H       2.718852      0.186987     -3.412335
  H       1.940707     -1.130967     -2.511534
  H       4.603135      0.206462     -1.737500
  H       3.785958     -1.097156     -0.826258
  H       1.266217      2.575133      0.698583
  H       2.470149      3.069286      1.926943
  H       2.734876      3.457544      0.202082
  H       0.391652     -0.652212      2.884051
  H       0.505543      1.004954      2.271098
  H       0.518189      0.079714     -0.089542
  H       0.205624     -1.543817      0.549464
  H      -3.045965      0.056971     -0.490744
  H      -0.569116      1.727135     -1.172552
  H      -2.159297      1.803785     -1.966115
  H      -1.995737      2.284544     -0.260193
  H      -0.474310     -0.744088     -1.952959
  H      -2.125560     -0.679438     -2.588721
  H      -1.696635     -1.905095     -1.380802
  H      -1.592894     -1.078327      2.576223
  H      -3.085250     -2.881962      1.942559
  H      -1.696642     -2.891298      0.839143
  H      -3.274033     -2.252448      0.294700
  H      -4.156109      0.004620      1.309029
  H      -3.137222      0.855100      2.500547
  H      -3.939200     -0.672763      2.934305
42
Coordinates from ORCA-job opt E -1378.792095704671
  C       2.872541     -0.726111     -2.700095
  C       3.585880     -0.283840     -1.444990
  O       2.822143      0.763223     -0.822099
  P       3.242288      1.247832      0.668313
  C       2.256282      2.731932      0.850440
  O       4.717962      1.404448      0.850522
  S       2.563482     -0.206502      2.013126
  C       0.748146     -0.016356      1.997671
  C       0.063983     -0.489825      0.717049
  N      -1.345152     -0.159545      0.730840
  C      -1.921995      0.156795     -0.580368
  C      -1.596606      1.602410     -0.966833
  C      -1.549148     -0.800276     -1.721088
  C      -2.168232     -0.961496      1.641157
  C      -2.582761     -2.345440      1.122428
  C      -3.379058     -0.165304      2.130301
  H       3.466026     -1.495001     -3.216675
  H       2.727989      0.122885     -3.386412
  H       1.886594     -1.151898     -2.461335
  H       4.592172      0.103725     -1.672762
  H       3.696559     -1.127868     -0.740139
  H       1.192114      2.555553      0.633223
  H       2.364318      3.111021      1.876809
  H       2.647135      3.475919      0.140394
  H       0.431414     -0.604749      2.871795
  H       0.486349      1.032462      2.203394
  H       0.527787      0.038324     -0.129484
  H       0.273142     -1.571632      0.563081
  H      -3.015428      0.095471     -0.455423
  H      -0.511514      1.740167     -1.119122
  H      -2.102359      1.886211     -1.904508
  H      -1.921028      2.295150     -0.175012
  H      -0.489970     -0.699558     -2.004127
  H      -2.150031     -0.566903     -2.614618
  H      -1.733604     -1.852230     -1.459991
  H      -1.540925     -1.133342      2.531864
  H      -3.074648     -2.918162      1.925173
  H      -1.712352     -2.931324      0.783615
  H      -3.296452     -2.269509      0.285312
  H      -4.114119      0.007447      1.326210
  H      -3.060956      0.814106      2.520163
  H      -3.897970     -0.708212      2.936756
42
Coordinates from ORCA-job opt E -1378.792656073437
  C       2.819902     -0.799830     -2.638930
  C       3.538846     -0.350464     -1.390763
  O       2.824324      0.758860     -0.818769
  P       3.254574      1.293141      0.651186
  C       2.265977      2.781804      0.775396
  O       4.729129      1.438499      0.835549
  S       2.566990     -0.117710      2.045304
  C       0.748622      0.057624      1.999810
  C       0.077221     -0.458505      0.727937
  N      -1.339563     -0.168680      0.734849
  C      -1.919503      0.191563     -0.562618
  C      -1.582758      1.641982     -0.915117
  C      -1.564450     -0.744149     -1.726254
  C      -2.150520     -1.012993      1.614182
  C      -2.550955     -2.374056      1.029846
  C      -3.366465     -0.254005      2.145980
  H       3.384529     -1.612317     -3.119354
  H       2.726968      0.029365     -3.356261
  H       1.814227     -1.174346     -2.399941
  H       4.568269     -0.026508     -1.611428
  H       3.592934     -1.167598     -0.650006
  H       1.206116      2.597426      0.554356
  H       2.371524      3.193207      1.788846
  H       2.669416      3.494948      0.041521
  H       0.434156     -0.508826      2.889145
  H       0.471948      1.107290      2.175685
  H       0.530511      0.061273     -0.128571
  H       0.322166     -1.535242      0.596005
  H      -3.011574      0.134409     -0.426150
  H      -0.496746      1.771811     -1.061481
  H      -2.081092      1.951183     -1.847529
  H      -1.901279      2.318294     -0.107598
  H      -0.503642     -0.653788     -2.006252
  H      -2.160932     -0.480100     -2.613500
  H      -1.764954     -1.798432     -1.487736
  H      -1.509879     -1.219328      2.487760
  H      -3.032040     -2.991632      1.804511
  H      -1.675516     -2.929354      0.656783
  H      -3.268381     -2.263327      0.200130
  H      -4.101212     -0.042803      1.351797
  H      -3.054115      0.704812      2.586680
  H      -3.882773     -0.843499      2.919554
42
Coordinates from ORCA-job opt E -1378.793253855501
  C       2.742453     -0.912078     -2.539163
  C       3.467079     -0.463466     -1.294719
  O       2.846476      0.737733     -0.807544
  P       3.292113      1.334534      0.632297
  C       2.350228      2.858531      0.654905
  O       4.766610      1.429947      0.832993
  S       2.539399      0.022570      2.098900
  C       0.722680      0.199820      1.984555
  C       0.083957     -0.402602      0.731729
  N      -1.344949     -0.191338      0.723407
  C      -1.936731      0.227387     -0.550837
  C      -1.645355      1.704370     -0.817696
  C      -1.548290     -0.626582     -1.766506
  C      -2.119507     -1.099568      1.571877
  C      -2.500802     -2.433560      0.917556
  C      -3.340581     -0.402717      2.171657
  H       3.245408     -1.794793     -2.959826
  H       2.744247     -0.118825     -3.300274
  H       1.703326     -1.187211     -2.311502
  H       4.528961     -0.252282     -1.494250
  H       3.420878     -1.233222     -0.505964
  H       1.291363      2.689902      0.427437
  H       2.460603      3.324327      1.643123
  H       2.791301      3.508178     -0.114850
  H       0.383963     -0.307813      2.900322
  H       0.439973      1.257204      2.086369
  H       0.522377      0.093873     -0.145005
  H       0.385334     -1.468672      0.649949
  H      -3.025502      0.126991     -0.415733
  H      -0.564158      1.874280     -0.947925
  H      -2.143698      2.049215     -1.736096
  H      -1.988097      2.323683      0.024121
  H      -0.486314     -0.493969     -2.024958
  H      -2.138831     -0.323448     -2.644548
  H      -1.723922     -1.696565     -1.593145
  H      -1.450158     -1.340406      2.414732
  H      -2.939488     -3.111702      1.665349
  H      -1.622566     -2.934706      0.482605
  H      -3.246909     -2.291994      0.119615
  H      -4.087688     -0.150425      1.402708
  H      -3.038231      0.528895      2.672108
  H      -3.836953     -1.053497      2.906785
42
Coordinates from ORCA-job opt E -1378.793522968142
  C       2.614440     -1.071747     -2.406890
  C       3.353303     -0.606138     -1.176385
  O       2.833242      0.674161     -0.788885
  P       3.310841      1.353506      0.601971
  C       2.439269      2.916109      0.500824
  O       4.787084      1.400406      0.804047
  S       2.500664      0.190578      2.165818
  C       0.691664      0.376396      1.986050
  C       0.099246     -0.304620      0.750148
  N      -1.338818     -0.187146      0.723775
  C      -1.947052      0.288034     -0.521039
  C      -1.716060      1.790103     -0.690765
  C      -1.516819     -0.468322     -1.787088
  C      -2.060873     -1.186506      1.513616
  C      -2.377439     -2.487418      0.765401
  C      -3.313939     -0.596506      2.160949
  H       3.040959     -2.022912     -2.756297
  H       2.704193     -0.335537     -3.217875
  H       1.549416     -1.234585     -2.187682
  H       4.433931     -0.506209     -1.361616
  H       3.219831     -1.310082     -0.338198
  H       1.374459      2.769099      0.286723
  H       2.573027      3.456460      1.446792
  H       2.905767      3.480833     -0.319058
  H       0.312137     -0.072705      2.916329
  H       0.413681      1.439799      2.012603
  H       0.525259      0.179274     -0.139389
  H       0.457398     -1.354348      0.712650
  H      -3.031280      0.135616     -0.397953
  H      -0.642487      2.010885     -0.803581
  H      -2.223053      2.172082     -1.589300
  H      -2.085675      2.341094      0.186208
  H      -0.456865     -0.281465     -2.022084
  H      -2.107016     -0.130099     -2.652146
  H      -1.654704     -1.552676     -1.684380
  H      -1.375118     -1.453040      2.335284
  H      -2.775592     -3.242141      1.460392
  H      -1.475679     -2.904793      0.292765
  H      -3.133435     -2.326058     -0.019144
  H      -4.065955     -0.313616      1.408005
  H      -3.056668      0.302245      2.740152
  H      -3.785285     -1.328011      2.833808
42
Coordinates from ORCA-job opt E -1378.793722147728
  C       2.633959     -1.006050     -2.447906
  C       3.364144     -0.583898     -1.195722
  O       2.862356      0.694621     -0.780575
  P       3.344368      1.330407      0.628727
  C       2.545143      2.932409      0.547827
  O       4.820928      1.323114      0.842559
  S       2.475958      0.181329      2.168556
  C       0.673107      0.394290      1.962875
  C       0.079875     -0.311416      0.741379
  N      -1.359708     -0.195421      0.718927
  C      -1.978164      0.258398     -0.528101
  C      -1.756392      1.760550     -0.717322
  C      -1.550562     -0.510511     -1.787039
  C      -2.073660     -1.182443      1.530192
  C      -2.374432     -2.505074      0.813580
  C      -3.336767     -0.587015      2.153832
  H       3.042457     -1.958553     -2.814624
  H       2.751516     -0.252155     -3.239399
  H       1.561736     -1.145886     -2.248948
  H       4.448160     -0.497878     -1.369215
  H       3.208944     -1.309882     -0.380060
  H       1.474989      2.833192      0.327913
  H       2.694372      3.454749      1.501661
  H       3.035503      3.492640     -0.261114
  H       0.267107     -0.023260      2.896768
  H       0.417799      1.463950      1.955833
  H       0.506452      0.149390     -0.159957
  H       0.427535     -1.364651      0.728695
  H      -3.061804      0.104469     -0.401132
  H      -0.684461      1.987609     -0.836492
  H      -2.270208      2.127987     -1.618650
  H      -2.127773      2.320926      0.153119
  H      -0.492679     -0.323425     -2.028910
  H      -2.145168     -0.185220     -2.654157
  H      -1.685013     -1.594388     -1.670678
  H      -1.393557     -1.421453      2.364984
  H      -2.780379     -3.242851      1.522416
  H      -1.462774     -2.931666      0.368173
  H      -3.117673     -2.369227      0.011908
  H      -4.085060     -0.328655      1.388136
  H      -3.093255      0.327123      2.715111
  H      -3.806917     -1.306178      2.841386
42
Coordinates from ORCA-job opt E -1378.793797329130
  C       2.648387     -1.037629     -2.454988
  C       3.378234     -0.591002     -1.210861
  O       2.834504      0.667796     -0.786514
  P       3.316778      1.320626      0.614893
  C       2.498528      2.912817      0.533336
  O       4.796561      1.337469      0.812430
  S       2.479454      0.174671      2.167986
  C       0.674387      0.374571      1.978266
  C       0.081669     -0.311160      0.746794
  N      -1.356825     -0.186520      0.726932
  C      -1.964860      0.272793     -0.521862
  C      -1.750642      1.778692     -0.694517
  C      -1.519646     -0.482647     -1.782714
  C      -2.077071     -1.172182      1.533191
  C      -2.367050     -2.500981      0.822616
  C      -3.347239     -0.576332      2.142385
  H       3.081453     -1.977882     -2.825649
  H       2.734174     -0.280199     -3.248126
  H       1.582132     -1.207490     -2.245575
  H       4.455759     -0.463493     -1.400720
  H       3.262063     -1.327095     -0.396804
  H       1.425591      2.800823      0.327484
  H       2.650059      3.443710      1.482546
  H       2.969863      3.476524     -0.284742
  H       0.272510     -0.063796      2.904676
  H       0.413213      1.442985      1.990125
  H       0.507175      0.163480     -0.148595
  H       0.421469     -1.367237      0.718769
  H      -3.049024      0.111304     -0.409980
  H      -0.677835      2.015833     -0.793598
  H      -2.254823      2.150934     -1.600065
  H      -2.141607      2.327950      0.174872
  H      -0.461387     -0.284778     -2.015480
  H      -2.110808     -0.156144     -2.652202
  H      -1.645893     -1.568993     -1.676103
  H      -1.405852     -1.403531      2.377821
  H      -2.781145     -3.233907      1.532359
  H      -1.448970     -2.931691      0.392748
  H      -3.100637     -2.372719      0.010482
  H      -4.093508     -0.330490      1.370049
  H      -3.112474      0.345100      2.696201
  H      -3.816667     -1.290181      2.836689
42
Coordinates from ORCA-job opt E -1378.793837895146
  C       2.635942     -1.056740     -2.434777
  C       3.361551     -0.613824     -1.187008
  O       2.837100      0.658741     -0.779620
  P       3.323434      1.321993      0.615197
  C       2.520375      2.920788      0.514450
  O       4.802753      1.324925      0.816911
  S       2.472124      0.201235      2.177476
  C       0.668885      0.403493      1.970113
  C       0.082267     -0.295586      0.743092
  N      -1.357219     -0.184785      0.724734
  C      -1.971173      0.281306     -0.518220
  C      -1.770031      1.790109     -0.679513
  C      -1.525006     -0.462388     -1.785824
  C      -2.066555     -1.183558      1.523094
  C      -2.347175     -2.506563      0.798165
  C      -3.338978     -0.606328      2.144845
  H       3.052839     -2.009724     -2.791296
  H       2.747206     -0.309144     -3.234109
  H       1.563810     -1.201503     -2.235912
  H       4.443280     -0.508175     -1.366139
  H       3.222731     -1.340324     -0.367759
  H       1.446758      2.816945      0.308350
  H       2.675273      3.460102      1.458364
  H       2.998373      3.470650     -0.309208
  H       0.258377     -0.023501      2.898095
  H       0.410169      1.472581      1.967723
  H       0.502222      0.176409     -0.155860
  H       0.432090     -1.348813      0.722059
  H      -3.053646      0.109711     -0.404271
  H      -0.699094      2.036905     -0.774468
  H      -2.276006      2.165295     -1.582848
  H      -2.167155      2.328768      0.193754
  H      -0.469565     -0.253728     -2.022808
  H      -2.123424     -0.136679     -2.650709
  H      -1.640564     -1.550544     -1.684118
  H      -1.388303     -1.417867      2.361611
  H      -2.748590     -3.252826      1.501325
  H      -1.427609     -2.921985      0.356377
  H      -3.087913     -2.375548     -0.007076
  H      -4.091650     -0.359381      1.379038
  H      -3.109978      0.311363      2.707263
  H      -3.797925     -1.331802      2.834064
42
Coordinates from ORCA-job opt E -1378.793847493738
  C       2.641961     -1.060404     -2.430689
  C       3.359654     -0.620677     -1.177355
  O       2.840719      0.656583     -0.777341
  P       3.327015      1.323485      0.615597
  C       2.526642      2.923203      0.509449
  O       4.806266      1.322891      0.818748
  S       2.472286      0.210362      2.179167
  C       0.668994      0.409559      1.964473
  C       0.082956     -0.293193      0.738945
  N      -1.357237     -0.184898      0.723743
  C      -1.975549      0.283941     -0.516291
  C      -1.776757      1.793038     -0.674820
  C      -1.535396     -0.457576     -1.787379
  C      -2.063762     -1.186504      1.520548
  C      -2.343882     -2.507566      0.792006
  C      -3.335668     -0.613585      2.146617
  H       3.053041     -2.018621     -2.779874
  H       2.768401     -0.316565     -3.231211
  H       1.566626     -1.193860     -2.241848
  H       4.443704     -0.522954     -1.346353
  H       3.207753     -1.344198     -0.357871
  H       1.452756      2.821801      0.303876
  H       2.681983      3.464119      1.452375
  H       3.005523      3.470104     -0.315645
  H       0.256815     -0.015677      2.892479
  H       0.409594      1.478441      1.958721
  H       0.499111      0.178035     -0.161827
  H       0.435382     -1.345579      0.719048
  H      -3.057511      0.110600     -0.398468
  H      -0.706026      2.041586     -0.766327
  H      -2.281682      2.169562     -1.578085
  H      -2.176690      2.328570      0.199100
  H      -0.482903     -0.244624     -2.033415
  H      -2.142412     -0.135116     -2.647460
  H      -1.645204     -1.546172     -1.683925
  H      -1.382850     -1.421566      2.356831
  H      -2.742009     -3.257001      1.493671
  H      -1.425202     -2.920101      0.345933
  H      -3.087379     -2.374593     -0.010429
  H      -4.092362     -0.369084      1.383936
  H      -3.107350      0.304762      2.708208
  H      -3.789352     -1.340529      2.837697
42
Coordinates from ORCA-job opt E -1378.793854172737
  C       2.642848     -1.073106     -2.425236
  C       3.356049     -0.631541     -1.169937
  O       2.839194      0.648709     -0.776989
  P       3.326893      1.323070      0.611818
  C       2.529217      2.923420      0.496123
  O       4.806298      1.321343      0.814489
  S       2.470883      0.221865      2.181919
  C       0.667589      0.418573      1.963591
  C       0.083205     -0.287708      0.739233
  N      -1.357427     -0.183976      0.724887
  C      -1.977263      0.289048     -0.512821
  C      -1.786036      1.800002     -0.661443
  C      -1.532219     -0.442293     -1.788172
  C      -2.061148     -1.190662      1.517960
  C      -2.336487     -2.510170      0.784871
  C      -3.335669     -0.624333      2.144704
  H       3.051293     -2.034561     -2.768445
  H       2.776564     -0.333083     -3.228029
  H       1.566000     -1.200804     -2.241196
  H       4.441200     -0.537750     -1.333711
  H       3.197554     -1.351343     -0.348577
  H       1.454915      2.823072      0.292569
  H       2.686217      3.469338      1.435869
  H       3.007817      3.464921     -0.332631
  H       0.254415     -0.005439      2.891679
  H       0.407361      1.487180      1.955124
  H       0.496980      0.183102     -0.162881
  H       0.438341     -1.338961      0.720735
  H      -3.058398      0.109242     -0.397262
  H      -0.716233      2.054822     -0.745091
  H      -2.288082      2.179433     -1.565006
  H      -2.193615      2.327720      0.213683
  H      -0.481968     -0.219327     -2.035256
  H      -2.143491     -0.121093     -2.645635
  H      -1.632638     -1.532185     -1.689536
  H      -1.380226     -1.425910      2.354145
  H      -2.734434     -3.262722      1.483244
  H      -1.416033     -2.919278      0.339512
  H      -3.078447     -2.376164     -0.018786
  H      -4.093629     -0.382104      1.382629
  H      -3.111439      0.294082      2.707780
  H      -3.785951     -1.354431      2.834634
42
Coordinates from ORCA-job opt E -1378.793856444224
  C       2.648973     -1.079152     -2.425468
  C       3.357831     -0.635858     -1.168309
  O       2.838729      0.644307     -0.777877
  P       3.326331      1.322042      0.609410
  C       2.528485      2.922016      0.490121
  O       4.805790      1.321303      0.811678
  S       2.470458      0.225262      2.182407
  C       0.666755      0.419831      1.964516
  C       0.082428     -0.285327      0.739542
  N      -1.358276     -0.182550      0.725873
  C      -1.979142      0.291256     -0.511209
  C      -1.792209      1.803126     -0.655906
  C      -1.530951     -0.435600     -1.788004
  C      -2.060868     -1.191072      1.517783
  C      -2.335204     -2.509604      0.782639
  C      -3.336080     -0.626809      2.145272
  H       3.059328     -2.040472     -2.766666
  H       2.784110     -0.339690     -3.228471
  H       1.571849     -1.207853     -2.244244
  H       4.443416     -0.541285     -1.328484
  H       3.197189     -1.354747     -0.346661
  H       1.453956      2.821430      0.288197
  H       2.686544      3.469829      1.428589
  H       3.005938      3.461969     -0.340246
  H       0.255021     -0.006744      2.892061
  H       0.405152      1.488077      1.958109
  H       0.495593      0.186191     -0.162505
  H       0.437827     -1.336269      0.719930
  H      -3.059678      0.107798     -0.396912
  H      -0.722885      2.061358     -0.734194
  H      -2.291463      2.183125     -1.560737
  H      -2.204884      2.327592      0.218767
  H      -0.482744     -0.205545     -2.036982
  H      -2.146009     -0.117597     -2.643902
  H      -1.624225     -1.526225     -1.690190
  H      -1.379816     -1.426735      2.353688
  H      -2.734287     -3.262956      1.479432
  H      -1.414300     -2.918343      0.337936
  H      -3.075970     -2.374295     -0.021826
  H      -4.095250     -0.386389      1.383920
  H      -3.113071      0.292219      2.707777
  H      -3.784388     -1.357615      2.835700
42
Coordinates from ORCA-job opt E -1378.793860060859
  C       2.652024     -1.092238     -2.421437
  C       3.357296     -0.645196     -1.163604
  O       2.837521      0.636425     -0.778639
  P       3.325574      1.320532      0.605483
  C       2.528538      2.920367      0.478887
  O       4.804965      1.320326      0.807680
  S       2.468906      0.232011      2.184186
  C       0.665068      0.425471      1.966438
  C       0.081885     -0.278607      0.740423
  N      -1.358983     -0.179774      0.726994
  C      -1.981521      0.295798     -0.508626
  C      -1.803591      1.809503     -0.645707
  C      -1.526882     -0.422116     -1.788198
  C      -2.058467     -1.192955      1.515754
  C      -2.329061     -2.509656      0.775975
  C      -3.335463     -0.634246      2.144791
  H       3.063823     -2.054175     -2.759117
  H       2.788601     -0.354810     -3.226053
  H       1.574585     -1.221362     -2.242335
  H       4.443430     -0.551646     -1.320613
  H       3.193837     -1.361202     -0.339999
  H       1.453616      2.819321      0.279275
  H       2.688621      3.472475      1.414506
  H       3.004948      3.456230     -0.354701
  H       0.254389     -0.003552      2.893352
  H       0.402251      1.493437      1.962043
  H       0.494192      0.194892     -0.160976
  H       0.439637     -1.328691      0.718975
  H      -3.060975      0.105046     -0.396618
  H      -0.735470      2.074539     -0.717479
  H      -2.300566      2.190638     -1.551327
  H      -2.223371      2.327575      0.229389
  H      -0.481267     -0.180931     -2.037435
  H      -2.145927     -0.107234     -2.642384
  H      -1.609645     -1.513950     -1.693952
  H      -1.376885     -1.429345      2.350985
  H      -2.728301     -3.265810      1.469620
  H      -1.406646     -2.915471      0.331700
  H      -3.068476     -2.372994     -0.029474
  H      -4.095633     -0.394828      1.384112
  H      -3.115334      0.284359      2.709091
  H      -3.781244     -1.368158      2.833570
42
Coordinates from ORCA-job opt E -1378.793865294474
  C       2.657852     -1.120778     -2.410710
  C       3.357109     -0.664468     -1.152873
  O       2.836645      0.620735     -0.780562
  P       3.324276      1.318327      0.597127
  C       2.526877      2.916815      0.455911
  O       4.803451      1.320436      0.799943
  S       2.466597      0.244954      2.186469
  C       0.662515      0.436705      1.968963
  C       0.081063     -0.265370      0.741113
  N      -1.360122     -0.174329      0.728785
  C      -1.986043      0.305322     -0.503590
  C      -1.827870      1.822634     -0.624464
  C      -1.518091     -0.393137     -1.789080
  C      -2.053338     -1.196951      1.510819
  C      -2.317547     -2.509292      0.761059
  C      -3.332805     -0.649432      2.144883
  H       3.072227     -2.084438     -2.740262
  H       2.797010     -0.388560     -3.219641
  H       1.579833     -1.250300     -2.235134
  H       4.444207     -0.573413     -1.304687
  H       3.188603     -1.373625     -0.324335
  H       1.451319      2.813430      0.260745
  H       2.690125      3.477891      1.385657
  H       3.000729      3.444769     -0.384149
  H       0.253524      0.003734      2.894845
  H       0.397744      1.504241      1.968024
  H       0.490919      0.212583     -0.158974
  H       0.444011     -1.313672      0.715540
  H      -3.063047      0.098842     -0.396541
  H      -0.762689      2.102286     -0.683906
  H      -2.321653      2.206341     -1.530813
  H      -2.261616      2.326621      0.252051
  H      -0.477761     -0.129425     -2.037488
  H      -2.144302     -0.083720     -2.640061
  H      -1.579652     -1.487157     -1.703370
  H      -1.369752     -1.435770      2.343725
  H      -2.715544     -3.271780      1.448470
  H      -1.392824     -2.908636      0.315633
  H      -3.055928     -2.369452     -0.044806
  H      -4.095311     -0.410072      1.386471
  H      -3.117153      0.267194      2.714081
  H      -3.773591     -1.390084      2.829689
42
Coordinates from ORCA-job opt E -1378.793862797574
  C       2.659119     -1.124725     -2.407832
  C       3.359197     -0.665357     -1.151580
  O       2.838116      0.620141     -0.781231
  P       3.324385      1.319142      0.596168
  C       2.525186      2.916665      0.454085
  O       4.803454      1.322726      0.799688
  S       2.467057      0.245193      2.185616
  C       0.662920      0.436565      1.968311
  C       0.081242     -0.265192      0.740333
  N      -1.359945     -0.174179      0.728617
  C      -1.986685      0.306368     -0.503000
  C      -1.829883      1.823939     -0.622409
  C      -1.518932     -0.390250     -1.789548
  C      -2.052881     -1.197443      1.509999
  C      -2.317719     -2.508878      0.758893
  C      -3.331750     -0.650244      2.145429
  H       3.074494     -2.088354     -2.736242
  H       2.796529     -0.393630     -3.218097
  H       1.581469     -1.255406     -2.231018
  H       4.446068     -0.573761     -1.304751
  H       3.192159     -1.373190     -0.321597
  H       1.449725      2.811717      0.259109
  H       2.687972      3.478673      1.383339
  H       2.998367      3.444480     -0.386456
  H       0.254003      0.003580      2.894224
  H       0.398007      1.504081      1.967573
  H       0.490778      0.213338     -0.159594
  H       0.444484     -1.313435      0.714098
  H      -3.063499      0.098858     -0.395642
  H      -0.764974      2.104431     -0.683047
  H      -2.325234      2.208250     -1.527661
  H      -2.262794      2.326744      0.255204
  H      -0.478888     -0.125505     -2.037949
  H      -2.145642     -0.080193     -2.639932
  H      -1.579633     -1.484443     -1.705199
  H      -1.368785     -1.437366      2.342199
  H      -2.716182     -3.271910      1.445447
  H      -1.393076     -2.908174      0.313250
  H      -3.055845     -2.367872     -0.047042
  H      -4.094146     -0.408870      1.387519
  H      -3.115258      0.265200      2.716222
  H      -3.772982     -1.391714      2.829061
42
Coordinates from ORCA-job opt E -1378.793872608937
  C       2.658380     -1.137021     -2.395525
  C       3.364364     -0.667542     -1.146290
  O       2.842505      0.619074     -0.781462
  P       3.325171      1.321789      0.595046
  C       2.523215      2.917591      0.449342
  O       4.803929      1.327738      0.801138
  S       2.467010      0.247893      2.184562
  C       0.663148      0.438555      1.964986
  C       0.082053     -0.263646      0.736789
  N      -1.359252     -0.174187      0.726836
  C      -1.988767      0.309755     -0.501963
  C      -1.834389      1.827860     -0.617287
  C      -1.523369     -0.382206     -1.791834
  C      -2.050329     -1.200187      1.506185
  C      -2.317010     -2.508586      0.750486
  C      -3.327057     -0.655124      2.147467
  H       3.075563     -2.100977     -2.720694
  H       2.788708     -0.410122     -3.210775
  H       1.582209     -1.270458     -2.212172
  H       4.450067     -0.574397     -1.306742
  H       3.204007     -1.370699     -0.311016
  H       1.448130      2.809615      0.253817
  H       2.684287      3.482498      1.377096
  H       2.995966      3.444001     -0.392356
  H       0.252254      0.007063      2.890731
  H       0.398406      1.506139      1.962814
  H       0.490230      0.216379     -0.163004
  H       0.446796     -1.311357      0.709525
  H      -3.065147      0.100483     -0.393061
  H      -0.770159      2.109822     -0.683228
  H      -2.335651      2.214393     -1.518342
  H      -2.263087      2.327458      0.264228
  H      -0.483536     -0.116738     -2.040346
  H      -2.150895     -0.068772     -2.640354
  H      -1.583868     -1.476779     -1.711559
  H      -1.363762     -1.443608      2.335429
  H      -2.714792     -3.274257      1.434506
  H      -1.392935     -2.906359      0.302270
  H      -3.055946     -2.364265     -0.054165
  H      -4.089886     -0.406952      1.392191
  H      -3.107866      0.256051      2.724094
  H      -3.768695     -1.399921      2.827197
42
Coordinates from ORCA-job opt E -1378.793870192650
  C       2.656518     -1.153155     -2.384039
  C       3.366108     -0.674611     -1.140257
  O       2.843514      0.613439     -0.781668
  P       3.324880      1.322375      0.592043
  C       2.521754      2.916921      0.439472
  O       4.803516      1.330172      0.799013
  S       2.466407      0.254176      2.185331
  C       0.662573      0.443609      1.964456
  C       0.082628     -0.257862      0.735241
  N      -1.358904     -0.172390      0.726280
  C      -1.990561      0.314866     -0.500057
  C      -1.843189      1.834196     -0.607868
  C      -1.521890     -0.368547     -1.793299
  C      -2.046892     -1.203090      1.502117
  C      -2.311888     -2.508593      0.740886
  C      -3.323792     -0.663190      2.147416
  H       3.075213     -2.117735     -2.705389
  H       2.781713     -0.430505     -3.203857
  H       1.581425     -1.288583     -2.195825
  H       4.451078     -0.580738     -1.305149
  H       3.209821     -1.372748     -0.300019
  H       1.446701      2.807179      0.244782
  H       2.682697      3.486056      1.364650
  H       2.993800      3.439993     -0.404699
  H       0.251169      0.010902      2.889407
  H       0.397000      1.510992      1.963151
  H       0.488997      0.224712     -0.163972
  H       0.450055     -1.304552      0.705816
  H      -3.065973      0.100041     -0.392378
  H      -0.780250      2.121361     -0.671820
  H      -2.345877      2.222871     -1.507212
  H      -2.274648      2.327449      0.275874
  H      -0.483788     -0.095898     -2.041374
  H      -2.151830     -0.055047     -2.639999
  H      -1.575888     -1.463815     -1.717753
  H      -1.358684     -1.448737      2.329343
  H      -2.708367     -3.277812      1.421666
  H      -1.387304     -2.903042      0.290778
  H      -3.051218     -2.361931     -0.062976
  H      -4.087721     -0.412399      1.394125
  H      -3.105296      0.245497      2.728228
  H      -3.763607     -1.411829      2.824094
42
Coordinates from ORCA-job opt E -1378.793872559597
  C       2.649279     -1.173016     -2.365928
  C       3.369815     -0.679551     -1.134269
  O       2.845371      0.609481     -0.781993
  P       3.324510      1.324797      0.589104
  C       2.518542      2.917177      0.429653
  O       4.803009      1.335979      0.797079
  S       2.466713      0.260919      2.185525
  C       0.662817      0.448104      1.963202
  C       0.084083     -0.252561      0.732838
  N      -1.357703     -0.171200      0.724906
  C      -1.991365      0.320884     -0.498369
  C      -1.848711      1.841173     -0.598247
  C      -1.521024     -0.354245     -1.795390
  C      -2.042869     -1.207041      1.496367
  C      -2.307295     -2.508588      0.728291
  C      -3.319368     -0.672259      2.146732
  H       3.070563     -2.137620     -2.683800
  H       2.760805     -0.456628     -3.193159
  H       1.577226     -1.313604     -2.164597
  H       4.452503     -0.582310     -1.311615
  H       3.225601     -1.370459     -0.285959
  H       1.443832      2.804726      0.234706
  H       2.677770      3.490468      1.352543
  H       2.990095      3.437597     -0.416426
  H       0.250891      0.013783      2.887137
  H       0.395888      1.515151      1.962999
  H       0.488260      0.232729     -0.165834
  H       0.454228     -1.298171      0.701032
  H      -3.066088      0.102181     -0.391545
  H      -0.786846      2.132060     -0.662415
  H      -2.354299      2.233035     -1.494565
  H      -2.280421      2.328197      0.288826
  H      -0.483930     -0.076939     -2.042643
  H      -2.152406     -0.038467     -2.640162
  H      -1.571321     -1.450062     -1.725266
  H      -1.352876     -1.456289      2.320972
  H      -2.702398     -3.281928      1.405172
  H      -1.382652     -2.899604      0.275333
  H      -3.047428     -2.358373     -0.074163
  H      -4.084296     -0.416845      1.396051
  H      -3.100612      0.232719      2.733213
  H      -3.757892     -1.425404      2.819221
42
Coordinates from ORCA-job opt E -1378.793882264760
  C       2.622653     -1.222880     -2.317720
  C       3.373844     -0.692581     -1.120029
  O       2.846884      0.599493     -0.782818
  P       3.322988      1.330817      0.580783
  C       2.511636      2.918505      0.403838
  O       4.801336      1.349322      0.789495
  S       2.467635      0.280233      2.186877
  C       0.663526      0.461380      1.961422
  C       0.088777     -0.239064      0.728906
  N      -1.353500     -0.168807      0.721616
  C      -1.990680      0.335697     -0.494584
  C      -1.861292      1.858431     -0.572554
  C      -1.512981     -0.316561     -1.800801
  C      -2.032031     -1.217622      1.481228
  C      -2.292812     -2.509689      0.696267
  C      -3.309155     -0.696622      2.141690
  H       3.048270     -2.188156     -2.627698
  H       2.698082     -0.523548     -3.163362
  H       1.559506     -1.374238     -2.080023
  H       4.449755     -0.588872     -1.331434
  H       3.261652     -1.364092     -0.251587
  H       1.437446      2.800614      0.209346
  H       2.668085      3.502285      1.320591
  H       2.981845      3.431382     -0.447565
  H       0.250867      0.023392      2.883269
  H       0.392814      1.527483      1.963114
  H       0.488275      0.251409     -0.168856
  H       0.465975     -1.281906      0.693247
  H      -3.063564      0.106159     -0.392241
  H      -0.802274      2.159852     -0.633453
  H      -2.371621      2.258571     -1.462488
  H      -2.296709      2.328352      0.321907
  H      -0.478578     -0.025752     -2.044110
  H      -2.147293      0.004579     -2.641348
  H      -1.552442     -1.413689     -1.745420
  H      -1.338838     -1.474901      2.300562
  H      -2.685191     -3.293122      1.363013
  H      -1.367055     -2.891732      0.237989
  H      -3.033679     -2.351406     -0.103926
  H      -4.076091     -0.432096      1.396317
  H      -3.091862      0.200159      2.741164
  H      -3.744201     -1.460776      2.803930
42
Coordinates from ORCA-job opt E -1378.793890667335
  C       2.584802     -1.264401     -2.268457
  C       3.374343     -0.697679     -1.112731
  O       2.845211      0.595921     -0.784397
  P       3.320769      1.338411      0.573401
  C       2.504575      2.922167      0.384699
  O       4.799274      1.363466      0.780390
  S       2.470293      0.297110      2.187300
  C       0.665705      0.471531      1.960448
  C       0.094767     -0.231428      0.727542
  N      -1.347766     -0.169526      0.718125
  C      -1.984707      0.346958     -0.492986
  C      -1.862623      1.871192     -0.552004
  C      -1.499645     -0.286783     -1.805892
  C      -2.023365     -1.227840      1.467003
  C      -2.281535     -2.511999      0.668442
  C      -3.301655     -0.716656      2.133220
  H       3.013223     -2.229618     -2.574785
  H       2.615640     -0.582784     -3.131127
  H       1.534363     -1.426670     -1.985478
  H       4.440109     -0.586293     -1.367036
  H       3.303324     -1.350064     -0.225597
  H       1.430818      2.800373      0.190314
  H       2.658441      3.513012      1.297357
  H       2.973653      3.430269     -0.470162
  H       0.253406      0.031216      2.881316
  H       0.390976      1.536602      1.962315
  H       0.491720      0.260162     -0.170523
  H       0.476753     -1.272387      0.692217
  H      -3.056745      0.111121     -0.396647
  H      -0.805347      2.179098     -0.608990
  H      -2.375129      2.279494     -1.436943
  H      -2.300902      2.327281      0.348198
  H      -0.465765      0.011432     -2.042757
  H      -2.132952      0.041874     -2.644305
  H      -1.534382     -1.384616     -1.763888
  H      -1.329385     -1.492300      2.283240
  H      -2.672473     -3.303156      1.326827
  H      -1.354944     -2.887331      0.206348
  H      -3.022630     -2.346898     -0.130107
  H      -4.069075     -0.444851      1.391061
  H      -3.085813      0.173608      2.742828
  H      -3.735326     -1.489019      2.786778
42
Coordinates from ORCA-job opt E -1378.793891986019
  C       2.542204     -1.279822     -2.229612
  C       3.374620     -0.684200     -1.119482
  O       2.845057      0.608553     -0.787050
  P       3.321952      1.346810      0.572873
  C       2.506432      2.931387      0.388458
  O       4.800695      1.372135      0.778019
  S       2.473804      0.302208      2.184574
  C       0.668725      0.471763      1.956987
  C       0.099928     -0.236369      0.726294
  N      -1.342562     -0.175148      0.712963
  C      -1.976419      0.348559     -0.496602
  C      -1.847400      1.872575     -0.549947
  C      -1.492612     -0.282293     -1.811584
  C      -2.020768     -1.233970      1.458503
  C      -2.278761     -2.516604      0.657401
  C      -3.300359     -0.723058      2.122899
  H       2.970088     -2.244229     -2.539334
  H       2.524182     -0.612989     -3.104113
  H       1.508003     -1.451437     -1.896898
  H       4.426568     -0.563721     -1.422384
  H       3.351656     -1.323209     -0.220107
  H       1.432951      2.811969      0.191250
  H       2.658232      3.518698      1.303778
  H       2.977501      3.442469     -0.463498
  H       0.257462      0.031790      2.878502
  H       0.391561      1.536171      1.956319
  H       0.498641      0.249476     -0.174061
  H       0.480998     -1.277719      0.697464
  H      -3.049615      0.117533     -0.402228
  H      -0.789147      2.176525     -0.608906
  H      -2.360622      2.286270     -1.431936
  H      -2.281314      2.326579      0.353401
  H      -0.455895      0.008786     -2.044524
  H      -2.121335      0.055474     -2.649860
  H      -1.536198     -1.379921     -1.775087
  H      -1.328986     -1.500674      2.275832
  H      -2.669934     -3.308943      1.314214
  H      -1.352159     -2.891099      0.194653
  H      -3.019797     -2.350015     -0.140828
  H      -4.066613     -0.450422      1.379909
  H      -3.085471      0.166507      2.733817
  H      -3.735293     -1.496398      2.774483
42
Coordinates from ORCA-job opt E -1378.793893312584
  C       2.581966     -1.245317     -2.277038
  C       3.378964     -0.679775     -1.126118
  O       2.849576      0.611557     -0.787673
  P       3.324655      1.340299      0.578105
  C       2.512581      2.927918      0.403879
  O       4.803032      1.361023      0.786041
  S       2.471496      0.287454      2.182566
  C       0.666452      0.462138      1.957526
  C       0.093200     -0.244119      0.728007
  N      -1.349031     -0.174256      0.717116
  C      -1.983504      0.339035     -0.496823
  C      -1.849287      1.861983     -0.565626
  C      -1.505614     -0.306590     -1.806439
  C      -2.030109     -1.224586      1.472040
  C      -2.290409     -2.514121      0.682707
  C      -3.308833     -0.705038      2.131101
  H       3.008815     -2.209929     -2.587524
  H       2.605601     -0.563056     -3.139505
  H       1.533901     -1.408633     -1.986696
  H       4.442221     -0.564213     -1.388954
  H       3.317943     -1.336141     -0.241090
  H       1.438761      2.811505      0.206498
  H       2.666277      3.508683      1.323064
  H       2.984498      3.443848     -0.444693
  H       0.256622      0.023929      2.880562
  H       0.392493      1.527380      1.956895
  H       0.494569      0.239498     -0.172574
  H       0.469140     -1.287487      0.699571
  H      -3.057191      0.112424     -0.397395
  H      -0.789541      2.160921     -0.625530
  H      -2.358863      2.268869     -1.452913
  H      -2.282592      2.327366      0.332210
  H      -0.469321     -0.019700     -2.045686
  H      -2.136650      0.023448     -2.646041
  H      -1.551114     -1.403786     -1.758544
  H      -1.339327     -1.485010      2.292376
  H      -2.683918     -3.299448      1.346555
  H      -1.364434     -2.895102      0.223957
  H      -3.030476     -2.352967     -0.117600
  H      -4.075155     -0.440496      1.385158
  H      -3.093135      0.191266      2.731798
  H      -3.744259     -1.470775      2.791287
42
Coordinates from ORCA-job opt E -1378.793902784361
  C       2.576370     -1.280689     -2.248406
  C       3.381383     -0.696477     -1.112515
  O       2.851200      0.598110     -0.789286
  P       3.323396      1.341593      0.569297
  C       2.506164      2.925012      0.381247
  O       4.801486      1.367710      0.778545
  S       2.471497      0.299887      2.182991
  C       0.666457      0.472680      1.957314
  C       0.095637     -0.231896      0.725458
  N      -1.346723     -0.169343      0.716451
  C      -1.986235      0.350567     -0.491792
  C      -1.869114      1.875486     -0.544458
  C      -1.501911     -0.276100     -1.808009
  C      -2.021698     -1.229882      1.462214
  C      -2.277647     -2.511692      0.659035
  C      -3.300764     -0.722370      2.129451
  H       3.004843     -2.247325     -2.550251
  H       2.589562     -0.609519     -3.119854
  H       1.531400     -1.444509     -1.947110
  H       4.442099     -0.582420     -1.386182
  H       3.329620     -1.340525     -0.217868
  H       1.432057      2.802245      0.189221
  H       2.661767      3.515961      1.293541
  H       2.973453      3.433431     -0.474432
  H       0.256041      0.032833      2.879356
  H       0.391184      1.537620      1.958387
  H       0.494597      0.257063     -0.173469
  H       0.477169     -1.273147      0.692747
  H      -3.057357      0.110705     -0.395006
  H      -0.812434      2.186066     -0.600079
  H      -2.382355      2.286449     -1.427782
  H      -2.307852      2.327148      0.357764
  H      -0.470118      0.027660     -2.046259
  H      -2.139085      0.052542     -2.643467
  H      -1.531595     -1.374464     -1.769960
  H      -1.327682     -1.495908      2.278183
  H      -2.671461     -3.304856      1.313337
  H      -1.349497     -2.885878      0.199016
  H      -3.015467     -2.343445     -0.142011
  H      -4.068482     -0.450837      1.387391
  H      -3.086598      0.167313      2.740506
  H      -3.733308     -1.496800      2.781299
42
Coordinates from ORCA-job opt E -1378.793908071159
  C       2.559284     -1.285384     -2.235620
  C       3.379466     -0.692041     -1.115503
  O       2.850106      0.602602     -0.790780
  P       3.324067      1.344156      0.568394
  C       2.508406      2.928755      0.383103
  O       4.802318      1.368605      0.776476
  S       2.472718      0.301995      2.182061
  C       0.667383      0.473465      1.956687
  C       0.097488     -0.234097      0.726173
  N      -1.344770     -0.170977      0.715091
  C      -1.982943      0.350949     -0.492996
  C      -1.864771      1.875901     -0.543471
  C      -1.498028     -0.274080     -1.809741
  C      -2.020909     -1.231597      1.459542
  C      -2.274329     -2.513698      0.655921
  C      -3.301772     -0.725130      2.124109
  H       2.985574     -2.253022     -2.537418
  H       2.557635     -0.620245     -3.111826
  H       1.519226     -1.449508     -1.917906
  H       4.435466     -0.575853     -1.406057
  H       3.343999     -1.331949     -0.217054
  H       1.433860      2.807583      0.192496
  H       2.666029      3.518217      1.296029
  H       2.975216      3.437790     -0.472472
  H       0.257729      0.035058      2.879773
  H       0.391608      1.538264      1.955660
  H       0.498615      0.251402     -0.173719
  H       0.478328     -1.275707      0.697412
  H      -3.054277      0.111557     -0.397354
  H      -0.807705      2.185500     -0.597945
  H      -2.376778      2.288633     -1.426694
  H      -2.303423      2.326840      0.359151
  H      -0.465706      0.029080     -2.046422
  H      -2.134155      0.056482     -2.645251
  H      -1.528806     -1.372476     -1.773597
  H      -1.328479     -1.497020      2.277120
  H      -2.668607     -3.307336      1.309383
  H      -1.345095     -2.886956      0.197293
  H      -3.010930     -2.345876     -0.146342
  H      -4.068974     -0.456228      1.380520
  H      -3.090113      0.165875      2.734100
  H      -3.733954     -1.499529      2.776229
42
Coordinates from ORCA-job opt E -1378.793909208680
  C       2.559608     -1.283191     -2.238075
  C       3.380309     -0.689689     -1.118392
  O       2.850676      0.604593     -0.792321
  P       3.324770      1.344243      0.567954
  C       2.509998      2.929577      0.384938
  O       4.803029      1.367645      0.776004
  S       2.473009      0.301032      2.180769
  C       0.667367      0.472511      1.956539
  C       0.096449     -0.236303      0.727273
  N      -1.345727     -0.171422      0.715837
  C      -1.982789      0.349941     -0.493171
  C      -1.863832      1.874827     -0.544098
  C      -1.496561     -0.275529     -1.809255
  C      -2.022952     -1.231081      1.460826
  C      -2.275608     -2.514163      0.658516
  C      -3.304622     -0.723960      2.123425
  H       2.985360     -2.251189     -2.539495
  H       2.557763     -0.618622     -3.114713
  H       1.519615     -1.446709     -1.919956
  H       4.435979     -0.572740     -1.409822
  H       3.346113     -1.330213     -0.220318
  H       1.435123      2.809419      0.195497
  H       2.669145      3.517674      1.298502
  H       2.976199      3.439467     -0.470445
  H       0.258793      0.035043      2.880537
  H       0.391768      1.537357      1.954614
  H       0.498494      0.246955     -0.173331
  H       0.475980     -1.278449      0.700324
  H      -3.054242      0.110812     -0.398478
  H      -0.806396      2.183558     -0.596722
  H      -2.373748      2.287637     -1.428498
  H      -2.303561      2.326540      0.357602
  H      -0.464336      0.028239     -2.045472
  H      -2.132480      0.054092     -2.645309
  H      -1.526627     -1.373893     -1.772624
  H      -1.331538     -1.495464      2.279583
  H      -2.670112     -3.307201      1.312569
  H      -1.346126     -2.887753      0.200646
  H      -3.011917     -2.347255     -0.144179
  H      -4.071952     -0.457984      1.378905
  H      -3.094180      0.168887      2.731112
  H      -3.736240     -1.497236      2.777259
42
Coordinates from ORCA-job opt E -1378.793904594322
  C       2.560120     -1.282624     -2.240397
  C       3.379256     -0.690118     -1.119020
  O       2.849421      0.603996     -0.792704
  P       3.324265      1.343799      0.567243
  C       2.509502      2.929196      0.384720
  O       4.802634      1.366875      0.774542
  S       2.473280      0.300919      2.180846
  C       0.667485      0.472310      1.957605
  C       0.096355     -0.236601      0.728517
  N      -1.345786     -0.171033      0.716733
  C      -1.982343      0.350007     -0.492792
  C      -1.863832      1.874925     -0.543669
  C      -1.495112     -0.275133     -1.808701
  C      -2.023433     -1.230577      1.461547
  C      -2.274614     -2.514264      0.659736
  C      -3.306100     -0.723639      2.122287
  H       2.985629     -2.250896     -2.541276
  H       2.560386     -0.617840     -3.116880
  H       1.519390     -1.445383     -1.924303
  H       4.435371     -0.573166     -1.408853
  H       3.343624     -1.331419     -0.221554
  H       1.434287      2.809027      0.197212
  H       2.670396      3.517523      1.297834
  H       2.974341      3.438767     -0.471590
  H       0.259406      0.035061      2.881932
  H       0.391871      1.537153      1.955587
  H       0.498969      0.246291     -0.172017
  H       0.475481     -1.278902      0.701889
  H      -3.053746      0.110366     -0.398727
  H      -0.806347      2.183680     -0.595452
  H      -2.373008      2.287710     -1.428514
  H      -2.304180      2.326722      0.357683
  H      -0.463229      0.029914     -2.044744
  H      -2.131281      0.053570     -2.644924
  H      -1.523772     -1.373527     -1.772035
  H      -1.332882     -1.494063      2.281341
  H      -2.669331     -3.307200      1.313788
  H      -1.344520     -2.887610      0.202919
  H      -3.010282     -2.348126     -0.143713
  H      -4.073062     -0.459382      1.376754
  H      -3.097025      0.170189      2.729001
  H      -3.737581     -1.496496      2.776707
