42
Coordinates from ORCA-job opt E -1378.795598161895
  C          -2.71065585036489     -1.48495353121159     -1.88100699965808
  C          -3.16898184393654     -0.58580053201353     -0.73872129263510
  N          -2.06107460231711      0.03415232309231     -0.01061252801679
  C          -1.90935996040842     -0.43069702231903      1.36058759244642
  C          -1.62036516161657     -1.92015435717591      1.47425656658191
  C          -2.03433404979066      1.47762364226104     -0.10611989059431
  C          -1.75859776191286      2.02961527520553     -1.50037176411621
  S          -0.18678174259598      1.50379780107116     -2.27191435077631
  P           1.16056950679383      2.32936932155946     -0.88614576526522
  C           2.71539411991686      2.41796163363201     -1.77975243276636
  O           0.68145703524577      3.60934616351599     -0.28565395873552
  O           1.37233363291972      1.23750140920048      0.28871608281334
  C           1.64236727742197     -0.14754896820212      0.06000542082014
  C           2.17341779116271     -0.77426480945433      1.34109945392367
  C           2.40648827967037     -2.26789272116184      1.11720354360559
  C           3.44014352304475     -0.07184281140345      1.82595238674926
  H          -2.12052277835882     -0.91391386844559     -2.61429762778229
  H          -2.07453717213826     -2.30126045139977     -1.50572749382930
  H          -3.57094565626587     -1.93275557263866     -2.40286219805443
  H          -3.79832804350300     -1.16664144785307     -0.04067103550102
  H          -3.83583809991986      0.19998520152149     -1.13647205747214
  H          -1.06953945301102      0.12788507936178      1.80524973881329
  H          -2.80567165325430     -0.18397355995351      1.97479891837904
  H          -2.45937347935196     -2.53533382392598      1.11488335329552
  H          -1.43948926867073     -2.19007379831280      2.52552347620849
  H          -0.72704865493499     -2.19315442596379      0.89193667809801
  H          -1.26053198674178      1.85768856528820      0.57794584232984
  H          -2.99263223304065      1.93714609834069      0.22812317561805
  H          -1.76745153011347      3.12771282703777     -1.46621732712938
  H          -2.52454794602774      1.71475562614772     -2.22501603552626
  H           2.62163747162304      3.17185808182949     -2.57283481683501
  H           3.49278120963555      2.72503730479397     -1.06498592992028
  H           2.98418617114003      1.44850745723188     -2.22192199047412
  H           2.38784841743208     -0.26417100075293     -0.74762228047343
  H           0.70726158623448     -0.63406700477316     -0.26197142943947
  H           1.38791610003911     -0.65321787598202      2.10923885056781
  H           3.18718203091452     -2.43478987656850      0.35652046327626
  H           2.73667253667918     -2.75438603303509      2.04721283258716
  H           1.49136189660925     -2.77659589244894      0.77661839231421
  H           3.26079548522850      0.99901719517265      1.99898781413863
  H           3.80044311108418     -0.51426034076278      2.76727867885467
  H           4.24635175547964     -0.16558425050524      1.07875995357971
