42
Coordinates from ORCA-job opt E -1378.785591375798
  C      -2.603139     -1.717799     -1.670403
  C      -3.146389     -0.610882     -0.775708
  N      -2.042053      0.060308     -0.068415
  C      -1.996546     -0.296673      1.363633
  C      -1.729256     -1.775012      1.625226
  C      -2.124570      1.533195     -0.199201
  C      -1.831898      2.085860     -1.608276
  S      -0.198881      1.634268     -2.275782
  P       1.136832      2.321675     -0.828883
  C       2.750491      2.527314     -1.581136
  O       0.649378      3.622615     -0.251456
  O       1.392649      1.222115      0.328986
  C       1.702818     -0.117231     -0.019176
  C       2.210517     -0.860684      1.220988
  C       2.454567     -2.333186      0.897698
  C       3.486907     -0.219044      1.769709
  H      -1.914340     -1.316199     -2.420917
  H      -2.073831     -2.485538     -1.098895
  H      -3.426463     -2.206621     -2.201511
  H      -3.890819     -1.020183     -0.081661
  H      -3.706782      0.082394     -1.413598
  H      -1.178999      0.257108      1.842586
  H      -2.923313      0.002475      1.869728
  H      -2.568925     -2.403832      1.314966
  H      -1.574338     -1.940915      2.696550
  H      -0.829541     -2.112856      1.102436
  H      -1.414274      2.002554      0.492186
  H      -3.117839      1.880203      0.116717
  H      -1.888768      3.179295     -1.579041
  H      -2.587276      1.751826     -2.325592
  H       2.715172      3.323090     -2.330889
  H       3.488484      2.803498     -0.822806
  H       3.087263      1.613522     -2.076738
  H       2.459339     -0.137525     -0.809237
  H       0.798597     -0.600605     -0.400448
  H       1.446261     -0.793682      2.005635
  H       3.227232     -2.448884      0.129944
  H       2.779678     -2.878394      1.790050
  H       1.539666     -2.809409      0.530526
  H       3.311257      0.819662      2.067962
  H       3.843984     -0.760165      2.652451
  H       4.287149     -0.226030      1.021792
42
Coordinates from ORCA-job opt E -1378.792759998704
  C      -2.565787     -1.706125     -1.668580
  C      -3.087596     -0.601002     -0.753722
  N      -2.002350      0.099132     -0.053549
  C      -1.928612     -0.239755      1.368529
  C      -1.641000     -1.711186      1.639834
  C      -2.090309      1.548871     -0.206091
  C      -1.800887      2.057587     -1.617639
  S      -0.182491      1.575560     -2.292847
  P       1.089454      2.308109     -0.810507
  C       2.695473      2.549233     -1.573393
  O       0.539444      3.561218     -0.193576
  O       1.330594      1.172465      0.318188
  C       1.656504     -0.173674     -0.034526
  C       2.153245     -0.909997      1.202125
  C       2.435257     -2.372310      0.857155
  C       3.391254     -0.231419      1.794549
  H      -1.891072     -1.290723     -2.432315
  H      -2.012006     -2.472713     -1.107718
  H      -3.399938     -2.205728     -2.188220
  H      -3.818964     -1.016105     -0.035599
  H      -3.665602      0.105642     -1.370835
  H      -1.110066      0.347398      1.815238
  H      -2.861333      0.057193      1.893347
  H      -2.478116     -2.361736      1.344161
  H      -1.469537     -1.863894      2.715772
  H      -0.738706     -2.041258      1.104631
  H      -1.369983      2.023050      0.477757
  H      -3.092406      1.918747      0.095210
  H      -1.857796      3.155225     -1.620138
  H      -2.543831      1.690461     -2.340243
  H       2.633951      3.359898     -2.312030
  H       3.415729      2.832028     -0.793397
  H       3.060200      1.644167     -2.081352
  H       2.437355     -0.187364     -0.814849
  H       0.756373     -0.666601     -0.437808
  H       1.350202     -0.873865      1.958915
  H       3.243374     -2.455297      0.112458
  H       2.743004     -2.930374      1.753478
  H       1.543368     -2.866620      0.441710
  H       3.176372      0.807166      2.087176
  H       3.737431     -0.767376      2.691338
  H       4.219801     -0.216401      1.067361
42
Coordinates from ORCA-job opt E -1378.794797891241
  C      -2.779281     -1.614848     -1.807085
  C      -3.187706     -0.561992     -0.780919
  N      -2.057636      0.017187     -0.050705
  C      -1.956586     -0.447651      1.324841
  C      -1.779428     -1.953470      1.459809
  C      -2.031247      1.464266     -0.106234
  C      -1.727895      2.037156     -1.484027
  S      -0.154260      1.508770     -2.238609
  P       1.177646      2.349610     -0.861218
  C       2.731206      2.489097     -1.750258
  O       0.670427      3.628684     -0.272942
  O       1.433722      1.268313      0.317288
  C       1.700144     -0.117997      0.066662
  C       2.247990     -0.756244      1.330088
  C       2.462480     -2.250282      1.089798
  C       3.527688     -0.063793      1.800245
  H      -2.096003     -1.175692     -2.552673
  H      -2.259233     -2.461819     -1.331418
  H      -3.660307     -2.012921     -2.339593
  H      -3.923303     -0.988638     -0.068311
  H      -3.732774      0.243724     -1.302993
  H      -1.081417      0.052086      1.773369
  H      -2.847375     -0.128060      1.918816
  H      -2.673965     -2.513992      1.141610
  H      -1.585211     -2.213065      2.512939
  H      -0.923274     -2.302934      0.859863
  H      -1.266900      1.828661      0.595878
  H      -3.000126      1.907036      0.226174
  H      -1.734661      3.136069     -1.436224
  H      -2.482497      1.729728     -2.225417
  H       2.627267      3.252021     -2.535337
  H       3.495297      2.808203     -1.024432
  H       3.045206      1.539553     -2.211657
  H       2.438340     -0.226031     -0.752426
  H       0.760074     -0.606680     -0.244750
  H       1.477083     -0.633415      2.114422
  H       3.233521     -2.419368      0.317387
  H       2.796985     -2.748572      2.013432
  H       1.536459     -2.746901      0.752847
  H       3.353000      1.004348      2.002685
  H       3.906884     -0.527669      2.725624
  H       4.319670     -0.140851      1.033452
42
Coordinates from ORCA-job opt E -1378.795292410505
  C      -2.751204     -1.606369     -1.786170
  C      -3.176020     -0.564842     -0.758474
  N      -2.053546      0.045392     -0.042693
  C      -1.907605     -0.415989      1.331163
  C      -1.685050     -1.914691      1.463176
  C      -2.034654      1.491482     -0.122539
  C      -1.737398      2.055147     -1.506602
  S      -0.164010      1.525503     -2.268098
  P       1.161091      2.340652     -0.861909
  C       2.723248      2.464136     -1.738356
  O       0.661367      3.608414     -0.249702
  O       1.383246      1.235354      0.300848
  C       1.660071     -0.147351      0.045836
  C       2.195030     -0.790820      1.315382
  C       2.459784     -2.274116      1.059922
  C       3.441976     -0.072671      1.827325
  H      -2.083635     -1.152067     -2.535502
  H      -2.207232     -2.438224     -1.313490
  H      -3.624808     -2.025270     -2.309999
  H      -3.888717     -1.009609     -0.036351
  H      -3.748477      0.226255     -1.271139
  H      -1.039561      0.112078      1.759473
  H      -2.790955     -0.123314      1.946901
  H      -2.566438     -2.499349      1.158003
  H      -1.467051     -2.169581      2.511494
  H      -0.831795     -2.238802      0.848001
  H      -1.270466      1.866828      0.574876
  H      -3.001106      1.940493      0.204473
  H      -1.743370      3.153113     -1.466718
  H      -2.490828      1.743415     -2.245990
  H       2.631852      3.234806     -2.515833
  H       3.482549      2.767053     -1.001629
  H       3.023580      1.512943     -2.200324
  H       2.410572     -0.242255     -0.761123
  H       0.728839     -0.635234     -0.286809
  H       1.399805     -0.702649      2.078794
  H       3.257213     -2.407514      0.309289
  H       2.783174     -2.776750      1.984039
  H       1.562809     -2.792671      0.688840
  H       3.235393      0.987988      2.030959
  H       3.807331     -0.534365      2.757876
  H       4.254995     -0.124924      1.082781
42
Coordinates from ORCA-job opt E -1378.795454290611
  C      -2.675299     -1.601238     -1.780523
  C      -3.155776     -0.572791     -0.764921
  N      -2.064540      0.066907     -0.027814
  C      -1.927382     -0.382481      1.351705
  C      -1.654397     -1.871422      1.496865
  C      -2.062349      1.511560     -0.126800
  C      -1.761038      2.064959     -1.515071
  S      -0.181399      1.533056     -2.268003
  P       1.148324      2.333132     -0.852210
  C       2.713065      2.451717     -1.724770
  O       0.655882      3.596139     -0.227239
  O       1.359602      1.216675      0.300891
  C       1.636782     -0.162425      0.039203
  C       2.183270     -0.814477      1.302179
  C       2.449748     -2.295412      1.034933
  C       3.434860     -0.100457      1.807324
  H      -1.999769     -1.130439     -2.511367
  H      -2.123120     -2.418014     -1.292958
  H      -3.523169     -2.042340     -2.326610
  H      -3.870640     -1.037632     -0.059461
  H      -3.738148      0.201729     -1.291382
  H      -1.087271      0.177092      1.794193
  H      -2.828739     -0.118668      1.951019
  H      -2.504526     -2.487336      1.167683
  H      -1.459577     -2.115124      2.551716
  H      -0.772668     -2.167322      0.909011
  H      -1.310332      1.904658      0.574008
  H      -3.034559      1.955221      0.185215
  H      -1.766846      3.162641     -1.481177
  H      -2.513864      1.751842     -2.253944
  H       2.625028      3.224898     -2.499419
  H       3.474133      2.748044     -0.988052
  H       3.002758      1.498289     -2.186713
  H       2.378208     -0.252431     -0.775024
  H       0.703273     -0.647009     -0.288616
  H       1.395723     -0.732926      2.073121
  H       3.241585     -2.421708      0.278210
  H       2.781401     -2.803515      1.952507
  H       1.551681     -2.813772      0.667497
  H       3.231499      0.958905      2.017538
  H       3.808070     -0.566995      2.731498
  H       4.240515     -0.149904      1.055754
42
Coordinates from ORCA-job opt E -1378.795504603045
  C      -2.642210     -1.597237     -1.780745
  C      -3.141351     -0.582751     -0.758986
  N      -2.059460      0.071171     -0.021608
  C      -1.919227     -0.370701      1.359075
  C      -1.639406     -1.858028      1.510806
  C      -2.063944      1.514860     -0.129512
  C      -1.769418      2.065042     -1.520932
  S      -0.185914      1.541901     -2.272354
  P       1.144217      2.335516     -0.850856
  C       2.711612      2.450113     -1.719300
  O       0.655787      3.598279     -0.222983
  O       1.345875      1.214318      0.298373
  C       1.624633     -0.162447      0.033757
  C       2.167325     -0.819706      1.295375
  C       2.428788     -2.300831      1.023846
  C       3.421824     -0.111686      1.802503
  H      -1.974675     -1.111451     -2.508950
  H      -2.076099     -2.406800     -1.296805
  H      -3.482534     -2.050502     -2.329308
  H      -3.845625     -1.065304     -0.054924
  H      -3.739346      0.183394     -1.280395
  H      -1.081485      0.194192      1.799376
  H      -2.820302     -0.108402      1.958990
  H      -2.484377     -2.478378      1.175897
  H      -1.453091     -2.097914      2.568122
  H      -0.751209     -2.152589      0.931842
  H      -1.312491      1.915916      0.567294
  H      -3.036917      1.957171      0.182431
  H      -1.781022      3.162961     -1.488732
  H      -2.522753      1.747610     -2.257247
  H       2.626885      3.223531     -2.494156
  H       3.474236      2.743215     -0.983139
  H       2.994078      1.493875     -2.180260
  H       2.366165     -0.251653     -0.780439
  H       0.691109     -0.645521     -0.296270
  H       1.380085     -0.737367      2.066481
  H       3.220901     -2.428020      0.267582
  H       2.757591     -2.813015      1.940235
  H       1.528331     -2.814918      0.654366
  H       3.223306      0.948640      2.013689
  H       3.792306     -0.580916      2.726452
  H       4.227801     -0.163942      1.051410
42
Coordinates from ORCA-job opt E -1378.795534831787
  C      -2.654823     -1.580135     -1.807814
  C      -3.148743     -0.586447     -0.761987
  N      -2.062349      0.056391     -0.022044
  C      -1.922626     -0.393316      1.355185
  C      -1.658597     -1.884830      1.498834
  C      -2.054947      1.499851     -0.122265
  C      -1.764600      2.055113     -1.512437
  S      -0.181230      1.535575     -2.264660
  P       1.152470      2.342136     -0.852720
  C       2.716635      2.450040     -1.728026
  O       0.666625      3.610721     -0.234459
  O       1.354382      1.229871      0.304235
  C       1.624198     -0.149989      0.050957
  C       2.178890     -0.796748      1.311703
  C       2.412966     -2.285287      1.056561
  C       3.452417     -0.099313      1.786263
  H      -1.995023     -1.078691     -2.532576
  H      -2.081883     -2.396599     -1.343062
  H      -3.498544     -2.026601     -2.357781
  H      -3.843795     -1.086588     -0.061181
  H      -3.755793      0.186682     -1.263003
  H      -1.076939      0.159506      1.796151
  H      -2.818354     -0.123956      1.960767
  H      -2.509060     -2.493531      1.155489
  H      -1.481149     -2.133269      2.555933
  H      -0.770099     -2.186840      0.923402
  H      -1.296188      1.891871      0.571876
  H      -3.022768      1.949352      0.197568
  H      -1.776625      3.153215     -1.474995
  H      -2.519749      1.740950     -2.248347
  H       2.628050      3.215953     -2.510140
  H       3.484662      2.749404     -1.000086
  H       2.992970      1.487999     -2.181571
  H       2.353495     -0.254187     -0.772892
  H       0.683397     -0.632502     -0.259923
  H       1.407217     -0.691467      2.095784
  H       3.188532     -2.435908      0.287286
  H       2.750804     -2.789799      1.974164
  H       1.496484     -2.789850      0.712150
  H       3.273204      0.967536      1.983424
  H       3.831673     -0.559006      2.711730
  H       4.244815     -0.175680      1.022509
42
Coordinates from ORCA-job opt E -1378.795551449407
  C      -2.641333     -1.572911     -1.813540
  C      -3.140915     -0.589589     -0.760704
  N      -2.059277      0.058112     -0.018317
  C      -1.923036     -0.387452      1.360469
  C      -1.651426     -1.877101      1.508659
  C      -2.056229      1.500773     -0.122658
  C      -1.765863      2.052318     -1.514287
  S      -0.181832      1.534984     -2.266185
  P       1.148698      2.341051     -0.851260
  C       2.712766      2.450844     -1.726505
  O       0.661128      3.608713     -0.232140
  O       1.349880      1.226719      0.303720
  C       1.620404     -0.153109      0.048543
  C       2.174853     -0.800472      1.308769
  C       2.404637     -2.289778      1.054605
  C       3.449945     -0.105134      1.782277
  H      -1.988561     -1.061207     -2.537580
  H      -2.059017     -2.385976     -1.354252
  H      -3.482171     -2.024748     -2.363303
  H      -3.829018     -1.100962     -0.061556
  H      -3.756811      0.181241     -1.254908
  H      -1.081931      0.170941      1.803340
  H      -2.822740     -0.121494      1.962325
  H      -2.496077     -2.491143      1.160725
  H      -1.479810     -2.122622      2.567441
  H      -0.757498     -2.175372      0.939784
  H      -1.299641      1.897265      0.571133
  H      -3.026308      1.947967      0.194627
  H      -1.781306      3.150482     -1.479912
  H      -2.520077      1.733894     -2.249410
  H       2.623604      3.217442     -2.507884
  H       3.481314      2.749374     -0.998741
  H       2.988628      1.489301     -2.181531
  H       2.350549     -0.256150     -0.774871
  H       0.680284     -0.636355     -0.263557
  H       1.403783     -0.692864      2.093235
  H       3.178320     -2.443171      0.283927
  H       2.742675     -2.794429      1.972106
  H       1.486115     -2.791758      0.712576
  H       3.273076      0.962593      1.976674
  H       3.827731     -0.563295      2.709183
  H       4.242487     -0.185296      1.018983
42
Coordinates from ORCA-job opt E -1378.795569697687
  C      -2.650547     -1.554478     -1.827821
  C      -3.139493     -0.592748     -0.750706
  N      -2.051867      0.055095     -0.016988
  C      -1.907858     -0.388099      1.361846
  C      -1.628606     -1.876340      1.508907
  C      -2.050082      1.497563     -0.124316
  C      -1.763510      2.045299     -1.518179
  S      -0.179600      1.532937     -2.272610
  P       1.146751      2.339640     -0.855332
  C       2.711240      2.448866     -1.729933
  O       0.657337      3.608497     -0.239193
  O       1.345641      1.225668      0.300262
  C       1.619458     -0.154467      0.045663
  C       2.164756     -0.800756      1.310315
  C       2.393148     -2.291015      1.061193
  C       3.436692     -0.105688      1.792534
  H      -2.021711     -1.023847     -2.559471
  H      -2.045906     -2.363965     -1.391162
  H      -3.496461     -2.011931     -2.364582
  H      -3.805593     -1.125347     -0.046860
  H      -3.776156      0.178150     -1.218728
  H      -1.066654      0.174136      1.799784
  H      -2.806063     -0.125702      1.968027
  H      -2.470583     -2.494449      1.161884
  H      -1.454123     -2.121647      2.567285
  H      -0.734280     -2.169978      0.938306
  H      -1.291737      1.896435      0.566122
  H      -3.020364      1.943497      0.194738
  H      -1.785284      3.143428     -1.487631
  H      -2.517557      1.719846     -2.250605
  H       2.622578      3.214720     -2.512103
  H       3.480739      2.746946     -1.002932
  H       2.986604      1.487251     -2.185300
  H       2.357112     -0.255535     -0.771411
  H       0.683084     -0.639408     -0.274788
  H       1.387658     -0.690653      2.088739
  H       3.169743     -2.447881      0.294107
  H       2.726019     -2.793868      1.981575
  H       1.474866     -2.791327      0.716821
  H       3.259548      0.963271      1.979486
  H       3.804634     -0.559166      2.725725
  H       4.236428     -0.191323      1.037330
42
Coordinates from ORCA-job opt E -1378.795577739985
  C      -2.656350     -1.540183     -1.838115
  C      -3.141553     -0.592271     -0.747370
  N      -2.050641      0.051772     -0.015154
  C      -1.903239     -0.396353      1.361906
  C      -1.623705     -1.885282      1.501006
  C      -2.047045      1.494740     -0.119532
  C      -1.763620      2.043522     -1.513558
  S      -0.182539      1.529093     -2.272545
  P       1.149066      2.338510     -0.862036
  C       2.711326      2.441743     -1.741369
  O       0.663206      3.610573     -0.249634
  O       1.349115      1.229111      0.297750
  C       1.620801     -0.152431      0.048184
  C       2.162522     -0.795301      1.316347
  C       2.389718     -2.286662      1.072778
  C       3.434094     -0.100339      1.799319
  H      -2.037867     -0.998980     -2.570858
  H      -2.041937     -2.349010     -1.413953
  H      -3.504048     -1.998619     -2.371143
  H      -3.798390     -1.136634     -0.044069
  H      -3.786417      0.180668     -1.200929
  H      -1.060697      0.163949      1.799621
  H      -2.799766     -0.136467      1.971223
  H      -2.466578     -2.501702      1.153093
  H      -1.446073     -2.136083      2.557560
  H      -0.731208     -2.175920      0.926049
  H      -1.286455      1.891387      0.569760
  H      -3.015949      1.940918      0.202502
  H      -1.784432      3.141630     -1.482602
  H      -2.520198      1.718973     -2.243852
  H       2.621868      3.205015     -2.525952
  H       3.483625      2.740796     -1.017755
  H       2.984098      1.478346     -2.194443
  H       2.359991     -0.256929     -0.766948
  H       0.684229     -0.636431     -0.272791
  H       1.383512     -0.681802      2.092414
  H       3.166722     -2.447037      0.306879
  H       2.721336     -2.786473      1.995222
  H       1.471093     -2.787111      0.729450
  H       3.257897      0.969569      1.981538
  H       3.798747     -0.550546      2.735311
  H       4.235742     -0.190116      1.046693
42
Coordinates from ORCA-job opt E -1378.795588126092
  C      -2.674391     -1.515959     -1.857040
  C      -3.152867     -0.591453     -0.743642
  N      -2.056056      0.045237     -0.013017
  C      -1.906311     -0.409566      1.362077
  C      -1.619510     -1.898201      1.489809
  C      -2.045693      1.489083     -0.114380
  C      -1.762993      2.038241     -1.508423
  S      -0.184798      1.517956     -2.270033
  P       1.154221      2.334946     -0.871299
  C       2.712570      2.432889     -1.758077
  O       0.670800      3.610453     -0.264360
  O       1.361127      1.234338      0.295798
  C       1.629825     -0.149212      0.054630
  C       2.167360     -0.786482      1.327978
  C       2.390933     -2.279833      1.093126
  C       3.440239     -0.093180      1.809126
  H      -2.073555     -0.958022     -2.591761
  H      -2.043559     -2.322929     -1.454050
  H      -3.525159     -1.976387     -2.383459
  H      -3.794941     -1.155100     -0.042451
  H      -3.810562      0.185135     -1.172313
  H      -1.066111      0.151909      1.802284
  H      -2.803480     -0.157462      1.972578
  H      -2.459731     -2.516220      1.138320
  H      -1.438069     -2.156823      2.543792
  H      -0.727017     -2.179370      0.910084
  H      -1.282331      1.880798      0.574855
  H      -3.011965      1.938159      0.209629
  H      -1.780308      3.136369     -1.478162
  H      -2.522215      1.715775     -2.236903
  H       2.619893      3.192401     -2.545903
  H       3.487982      2.735377     -1.039274
  H       2.984794      1.467906     -2.207816
  H       2.370599     -0.258850     -0.758101
  H       0.692577     -0.631548     -0.266244
  H       1.387207     -0.666614      2.101765
  H       3.166172     -2.446499      0.326909
  H       2.723134     -2.774546      2.018004
  H       1.470434     -2.780215      0.754297
  H       3.267204      0.978186      1.985436
  H       3.801919     -0.539570      2.747945
  H       4.242633     -0.189490      1.058267
42
Coordinates from ORCA-job opt E -1378.795595279789
  C      -2.700669     -1.500729     -1.868770
  C      -3.163849     -0.588042     -0.739176
  N      -2.057292      0.038312     -0.014018
  C      -1.900449     -0.423362      1.358084
  C      -1.614939     -1.913139      1.475637
  C      -2.038075      1.482222     -0.110713
  C      -1.759913      2.033911     -1.504633
  S      -0.184825      1.511840     -2.271534
  P       1.158836      2.333356     -0.879943
  C       2.715494      2.425179     -1.770168
  O       0.678232      3.611810     -0.277296
  O       1.367639      1.238530      0.292421
  C       1.636867     -0.146134      0.058356
  C       2.168153     -0.777962      1.336952
  C       2.395437     -2.271815      1.108474
  C       3.437613     -0.081206      1.822082
  H      -2.109069     -0.936558     -2.606165
  H      -2.064674     -2.311585     -1.482037
  H      -3.558571     -1.955624     -2.388473
  H      -3.797769     -1.159202     -0.036982
  H      -3.826286      0.194530     -1.149720
  H      -1.056855      0.134616      1.796224
  H      -2.793579     -0.172821      1.975000
  H      -2.458342     -2.527995      1.126244
  H      -1.426178     -2.178466      2.526682
  H      -0.727071     -2.191721      0.887573
  H      -1.268614      1.866671      0.575816
  H      -2.999821      1.936343      0.219761
  H      -1.774357      3.132012     -1.472609
  H      -2.522230      1.714177     -2.231075
  H       2.622396      3.181806     -2.560742
  H       3.492185      2.729732     -1.053589
  H       2.986383      1.458139     -2.216281
  H       2.381605     -0.259247     -0.750320
  H       0.700822     -0.629448     -0.264983
  H       1.383677     -0.656537      2.106054
  H       3.174158     -2.439675      0.346043
  H       2.724994     -2.762386      2.036520
  H       1.477425     -2.775375      0.767679
  H       3.262256      0.990415      1.994654
  H       3.795610     -0.524597      2.763753
  H       4.243642     -0.178349      1.075219
42
Coordinates from ORCA-job opt E -1378.795593704892
  C      -2.704811     -1.498851     -1.870563
  C      -3.166242     -0.586346     -0.740049
  N      -2.059155      0.037281     -0.013626
  C      -1.903877     -0.426251      1.357769
  C      -1.618618     -1.916231      1.473461
  C      -2.036750      1.480935     -0.109118
  C      -1.759428      2.033561     -1.502814
  S      -0.185503      1.509996     -2.271272
  P       1.159665      2.332494     -0.881422
  C       2.715834      2.422834     -1.772515
  O       0.680097      3.611334     -0.279037
  O       1.369328      1.238510      0.291732
  C       1.638597     -0.146352      0.059494
  C       2.170647     -0.776366      1.338485
  C       2.400555     -2.270006      1.110942
  C       3.439283     -0.077186      1.822657
  H      -2.110074     -0.936178     -2.606614
  H      -2.072310     -2.312682     -1.484253
  H      -3.563726     -1.949901     -2.391962
  H      -3.802098     -1.156575     -0.038835
  H      -3.826854      0.198051     -1.150126
  H      -1.060908      0.131038      1.798007
  H      -2.797654     -0.176332      1.974258
  H      -2.461666     -2.530337      1.121787
  H      -1.431359     -2.183386      2.524323
  H      -0.729905     -2.193754      0.886184
  H      -1.265532      1.862980      0.576720
  H      -2.997007      1.937553      0.223082
  H      -1.771208      3.131662     -1.469430
  H      -2.523008      1.716394     -2.228982
  H       2.622732      3.178895     -2.563644
  H       3.492449      2.728017     -1.056100
  H       2.986043      1.455001     -2.217348
  H       2.382965     -0.260943     -0.749407
  H       0.702443     -0.630709     -0.262549
  H       1.386283     -0.655593      2.107803
  H       3.179770     -2.436820      0.348745
  H       2.731032     -2.759367      2.039339
  H       1.483763     -2.775787      0.770360
  H       3.262288      0.994053      1.996048
  H       3.799213     -0.520604      2.763634
  H       4.244703     -0.172405      1.074835
42
Coordinates from ORCA-job opt E -1378.795587224998
  C      -2.707993     -1.488923     -1.878118
  C      -3.167825     -0.586489     -0.738915
  N      -2.060753      0.035719     -0.011535
  C      -1.907090     -0.428867      1.359373
  C      -1.618206     -1.918309      1.473020
  C      -2.035593      1.479015     -0.107283
  C      -1.759383      2.031072     -1.501428
  S      -0.186731      1.505876     -2.271645
  P       1.160000      2.330325     -0.884278
  C       2.715242      2.418843     -1.777065
  O       0.681300      3.609966     -0.282997
  O       1.370883      1.237778      0.290122
  C       1.640215     -0.147424      0.060657
  C       2.172055     -0.774908      1.340893
  C       2.403427     -2.268732      1.116062
  C       3.440121     -0.073778      1.824198
  H      -2.117522     -0.919722     -2.612587
  H      -2.071607     -2.303625     -1.499815
  H      -3.567492     -1.938871     -2.399470
  H      -3.798371     -1.164886     -0.039802
  H      -3.833858      0.198257     -1.139880
  H      -1.066565      0.129842      1.802527
  H      -2.802588     -0.181918      1.974839
  H      -2.458322     -2.533550      1.116271
  H      -1.434535     -2.187669      2.523965
  H      -0.726440     -2.191926      0.888564
  H      -1.262681      1.859776      0.577326
  H      -2.994555      1.938028      0.226232
  H      -1.768880      3.129191     -1.467640
  H      -2.524566      1.715668     -2.226620
  H       2.621763      3.173661     -2.569335
  H       3.492412      2.725063     -1.061686
  H       2.984066      1.449779     -2.220090
  H       2.384862     -0.264099     -0.747766
  H       0.704350     -0.633153     -0.260572
  H       1.387566     -0.653441      2.109984
  H       3.182820     -2.436026      0.354117
  H       2.734599     -2.755975      2.045354
  H       1.487306     -2.776361      0.776630
  H       3.262227      0.997391      1.997020
  H       3.800973     -0.516327      2.765281
  H       4.245371     -0.168638      1.076092
42
Coordinates from ORCA-job opt E -1378.795599019402
  C      -2.709252     -1.487290     -1.879293
  C      -3.168362     -0.585959     -0.739013
  N      -2.060984      0.034999     -0.011011
  C      -1.908675     -0.429706      1.360133
  C      -1.619695     -1.919143      1.474018
  C      -2.034968      1.478386     -0.106689
  C      -1.758935      2.030386     -1.500903
  S      -0.186734      1.504838     -2.271844
  P       1.160251      2.329811     -0.885242
  C       2.715324      2.418516     -1.778345
  O       0.681273      3.609594     -0.284334
  O       1.371725      1.237554      0.289351
  C       1.641390     -0.147555      0.060148
  C       2.172865     -0.774774      1.340766
  C       2.405485     -2.268403      1.116201
  C       3.440084     -0.072801      1.825084
  H      -2.118379     -0.917692     -2.613117
  H      -2.073557     -2.303018     -1.502033
  H      -3.569148     -1.935893     -2.401112
  H      -3.798871     -1.165063     -0.040511
  H      -3.834353      0.199418     -1.138946
  H      -1.068677      0.128986      1.804339
  H      -2.804774     -0.182860      1.974703
  H      -2.459162     -2.534412      1.115864
  H      -1.437607     -2.188678      2.525186
  H      -0.727025     -2.192448      0.890842
  H      -1.261619      1.858822      0.577661
  H      -2.993577      1.937709      0.227175
  H      -1.767947      3.128494     -1.466887
  H      -2.524569      1.715393     -2.225814
  H       2.621756      3.172947     -2.570955
  H       3.492478      2.725184     -1.063141
  H       2.984258      1.449309     -2.220976
  H       2.386476     -0.264148     -0.747859
  H       0.705955     -0.633716     -0.261511
  H       1.387811     -0.653843      2.109374
  H       3.185651     -2.435160      0.354938
  H       2.736216     -2.755313      2.045808
  H       1.490048     -2.776791      0.776032
  H       3.261209      0.998104      1.998370
  H       3.800776     -0.515509      2.766136
  H       4.245839     -0.166651      1.077406
42
Coordinates from ORCA-job opt E -1378.795598161895
  C      -2.710656     -1.484954     -1.881007
  C      -3.168982     -0.585801     -0.738721
  N      -2.061075      0.034152     -0.010613
  C      -1.909360     -0.430697      1.360588
  C      -1.620365     -1.920154      1.474257
  C      -2.034334      1.477624     -0.106120
  C      -1.758598      2.029615     -1.500372
  S      -0.186782      1.503798     -2.271914
  P       1.160570      2.329369     -0.886146
  C       2.715394      2.417962     -1.779752
  O       0.681457      3.609346     -0.285654
  O       1.372334      1.237501      0.288716
  C       1.642367     -0.147549      0.060005
  C       2.173418     -0.774265      1.341099
  C       2.406488     -2.267893      1.117204
  C       3.440144     -0.071843      1.825952
  H      -2.120523     -0.913914     -2.614298
  H      -2.074537     -2.301260     -1.505727
  H      -3.570946     -1.932756     -2.402862
  H      -3.798328     -1.166641     -0.040671
  H      -3.835838      0.199985     -1.136472
  H      -1.069539      0.127885      1.805250
  H      -2.805672     -0.183974      1.974799
  H      -2.459373     -2.535334      1.114883
  H      -1.439489     -2.190074      2.525523
  H      -0.727049     -2.193154      0.891937
  H      -1.260532      1.857689      0.577946
  H      -2.992632      1.937146      0.228123
  H      -1.767452      3.127713     -1.466217
  H      -2.524548      1.714756     -2.225016
  H       2.621637      3.171858     -2.572835
  H       3.492781      2.725037     -1.064986
  H       2.984186      1.448507     -2.221922
  H       2.387848     -0.264171     -0.747622
  H       0.707262     -0.634067     -0.261971
  H       1.387916     -0.653218      2.109239
  H       3.187182     -2.434790      0.356520
  H       2.736673     -2.754386      2.047213
  H       1.491362     -2.776596      0.776618
  H       3.260795      0.999017      1.998988
  H       3.800443     -0.514260      2.767279
  H       4.246352     -0.165584      1.078760
