42
Coordinates from ORCA-job opt E -1378.793111276564
  C          -2.02508278890771      1.19546866619210      2.36151948572423
  C          -1.54518487717987      0.09813623910309      1.40967735786069
  N          -2.22336034293163      0.01541655226876      0.12335582390318
  C          -3.63573176557982     -0.32880595276666      0.17415362569251
  C          -3.91167174181626     -1.68336557809525      0.81134362972191
  C          -1.94008187717177      1.12613648700642     -0.75906339061000
  C          -1.93740439437268      0.76339793498259     -2.24245111592351
  S          -0.82410674803280     -0.61441707310709     -2.69057758460497
  P           1.00911721326714      0.31165487827190     -2.30539532597189
  C           2.20648859432671     -0.62559100721632     -3.26109508376118
  O           1.00803809207080      1.79029098850452     -2.53557023870916
  O           1.28852681668238     -0.09431436834589     -0.75759166114050
  C           2.29379742778550      0.59706269721468     -0.00533067759444
  C           2.80304556022152     -0.31321481723078      1.10203101844420
  C           3.42735593198191     -1.58625690770654      0.53490857919397
  C           3.78040020414825      0.45648439189470      1.98929151097886
  H          -1.92580862760798      2.19497340524721      1.90883677892372
  H          -1.42611820186999      1.18698746839802      3.28506101416347
  H          -3.07926328837720      1.05755592503372      2.64893139243861
  H          -1.62559050754001     -0.88012685450385      1.91078648067827
  H          -0.47266155779795      0.23460175088115      1.19779348187725
  H          -4.00945826936925     -0.35115746434141     -0.86195877769586
  H          -4.23461516370018      0.45537063839790      0.68908238207607
  H          -3.67950843337674     -1.69515515854001      1.88702755053741
  H          -4.97471611381730     -1.94431365912505      0.70148567174527
  H          -3.31080920926818     -2.46671147208691      0.32327180952863
  H          -2.65785223372160      1.96683024340998     -0.63596214349369
  H          -0.95004470274866      1.53412872565444     -0.50317092546407
  H          -1.65889054085891      1.63983559636872     -2.84409418221913
  H          -2.92544026057479      0.42316901871349     -2.58649729136502
  H           3.21551943457539     -0.30253845134301     -2.96498436735641
  H           2.05605997578794     -0.42228542506033     -4.32980645279993
  H           2.09315117558689     -1.69991733506906     -3.05958904159822
  H           3.12824887213085      0.89700106900465     -0.66491542774381
  H           1.85098030952589      1.51506821026193      0.41476740056959
  H           1.92647424405787     -0.59527182213326      1.71316962690968
  H           3.75342214515201     -2.25925186152483      1.34255365513053
  H           4.30950620793468     -1.34665889398827     -0.08273981772424
  H           2.71141855674504     -2.13360176643001     -0.09551677701234
  H           3.31618161837050      1.35855787538921      2.41754391825659
  H           4.12734486836453     -0.17208720470695      2.82317480554937
  H           4.66832439790546      0.77204574112233      1.41654326288435
