42
Coordinates from ORCA-job opt E -1378.783020778887
  C      -2.294951      1.290841      2.346557
  C      -1.512463      0.303196      1.485891
  N      -2.041491      0.052364      0.135970
  C      -3.404221     -0.497849      0.108947
  C      -3.553320     -1.808330      0.876692
  C      -1.902500      1.241734     -0.727841
  C      -2.040584      0.990747     -2.242172
  S      -0.946010     -0.304785     -2.902408
  P       0.960509      0.312337     -2.337820
  C       2.156198     -0.581981     -3.327141
  O       1.109850      1.801864     -2.484019
  O       1.298177     -0.196754     -0.840892
  C       2.337760      0.462501     -0.135817
  C       2.727264     -0.367968      1.090704
  C       3.280512     -1.734515      0.680713
  C       3.745996      0.384774      1.943191
  H      -2.353685      2.278189      1.879050
  H      -1.794294      1.414492      3.312801
  H      -3.311172      0.939448      2.547580
  H      -1.422786     -0.646417      2.026102
  H      -0.479087      0.662421      1.401632
  H      -3.687154     -0.719690     -0.925811
  H      -4.134839      0.229724      0.481862
  H      -3.456273     -1.663220      1.956729
  H      -4.544793     -2.235837      0.693112
  H      -2.807919     -2.542472      0.553289
  H      -2.637772      2.004869     -0.441456
  H      -0.918760      1.698199     -0.561323
  H      -1.817527      1.920283     -2.777113
  H      -3.070922      0.724255     -2.497074
  H       3.175982     -0.295964     -3.056136
  H       2.011130     -0.363414     -4.388846
  H       2.050244     -1.660247     -3.177846
  H       3.201376      0.608795     -0.793771
  H       1.969474      1.446625      0.173604
  H       1.827727     -0.546298      1.693393
  H       3.556571     -2.321417      1.563241
  H       4.171362     -1.629213      0.052140
  H       2.536805     -2.310364      0.120248
  H       3.340794      1.347047      2.273514
  H       4.007369     -0.191645      2.836894
  H       4.667422      0.578806      1.383630
42
Coordinates from ORCA-job opt E -1378.790324156794
  C      -2.275645      1.307867      2.343474
  C      -1.500249      0.316253      1.472685
  N      -2.024849      0.067095      0.133695
  C      -3.375556     -0.480024      0.099851
  C      -3.519011     -1.784009      0.876212
  C      -1.878285      1.226513     -0.732972
  C      -2.004863      0.924118     -2.225766
  S      -0.929606     -0.409898     -2.833490
  P       0.949072      0.322066     -2.326058
  C       2.120153     -0.564955     -3.354800
  O       1.025165      1.816732     -2.463922
  O       1.289756     -0.189681     -0.827092
  C       2.311327      0.483153     -0.085938
  C       2.708011     -0.378177      1.104509
  C       3.252125     -1.734713      0.648764
  C       3.724524      0.366444      1.970643
  H      -2.331511      2.304129      1.878730
  H      -1.769794      1.424406      3.313988
  H      -3.301326      0.963339      2.546690
  H      -1.415706     -0.644653      2.005954
  H      -0.463373      0.672440      1.364494
  H      -3.636262     -0.696514     -0.948114
  H      -4.124014      0.255364      0.462978
  H      -3.427436     -1.634986      1.962695
  H      -4.509404     -2.223607      0.687040
  H      -2.757713     -2.513154      0.559224
  H      -2.620817      2.014277     -0.488529
  H      -0.885432      1.671496     -0.561930
  H      -1.779002      1.835091     -2.797813
  H      -3.029253      0.622707     -2.486532
  H       3.140631     -0.246519     -3.101297
  H       1.936856     -0.345377     -4.415860
  H       2.039163     -1.650621     -3.195972
  H       3.189936      0.665424     -0.729397
  H       1.926408      1.458656      0.253342
  H       1.800139     -0.561025      1.705114
  H       3.524179     -2.357705      1.514379
  H       4.151728     -1.609417      0.023862
  H       2.504968     -2.286324      0.058748
  H       3.323536      1.329708      2.323645
  H       3.990535     -0.230384      2.855385
  H       4.650894      0.569597      1.409380
42
Coordinates from ORCA-job opt E -1378.792429127010
  C      -2.267854      1.316723      2.366649
  C      -1.510664      0.326492      1.476430
  N      -2.049665      0.087258      0.145408
  C      -3.392913     -0.470142      0.110939
  C      -3.530260     -1.772086      0.889067
  C      -1.881048      1.222069     -0.736173
  C      -1.954298      0.893502     -2.223884
  S      -0.895386     -0.482473     -2.775053
  P       0.969365      0.331112     -2.339516
  C       2.108767     -0.575915     -3.388959
  O       1.009868      1.824577     -2.476746
  O       1.301570     -0.181116     -0.836874
  C       2.301691      0.496995     -0.062484
  C       2.707521     -0.390250      1.101851
  C       3.271393     -1.725187      0.614711
  C       3.700631      0.356407      1.992428
  H      -2.328474      2.317508      1.908867
  H      -1.747208      1.424782      3.331230
  H      -3.294394      0.978286      2.582644
  H      -1.426085     -0.641213      1.999116
  H      -0.474441      0.679489      1.340826
  H      -3.641332     -0.679148     -0.941780
  H      -4.154949      0.261981      0.466471
  H      -3.441327     -1.625326      1.976864
  H      -4.516211     -2.222536      0.697109
  H      -2.756984     -2.491359      0.574343
  H      -2.629083      2.026946     -0.549803
  H      -0.892195      1.664215     -0.535528
  H      -1.695571      1.788023     -2.808433
  H      -2.965250      0.584464     -2.527804
  H       3.132264     -0.254253     -3.142339
  H       1.904887     -0.350926     -4.445461
  H       2.019822     -1.659544     -3.220116
  H       3.185738      0.718300     -0.690115
  H       1.893407      1.456344      0.298258
  H       1.793147     -0.592666      1.689816
  H       3.541538     -2.371661      1.464790
  H       4.179131     -1.567440      0.006222
  H       2.539580     -2.265043     -0.004827
  H       3.283567      1.306767      2.363725
  H       3.972895     -0.255363      2.866481
  H       4.628811      0.586540      1.441651
42
Coordinates from ORCA-job opt E -1378.792785691426
  C      -2.240269      1.281958      2.395329
  C      -1.523336      0.276614      1.490983
  N      -2.079598      0.077992      0.159902
  C      -3.436378     -0.444053      0.119014
  C      -3.604820     -1.760314      0.864783
  C      -1.874349      1.209472     -0.715742
  C      -1.927564      0.888820     -2.206817
  S      -0.881076     -0.505498     -2.746903
  P       0.993118      0.323861     -2.364255
  C       2.114482     -0.615040     -3.406213
  O       1.038953      1.812880     -2.523479
  O       1.319631     -0.167887     -0.853029
  C       2.313836      0.516206     -0.077359
  C       2.720453     -0.365427      1.092432
  C       3.305957     -1.692715      0.614188
  C       3.692491      0.396640      1.992362
  H      -2.269150      2.288270      1.947419
  H      -1.712812      1.361747      3.358485
  H      -3.277082      0.977950      2.611071
  H      -1.475014     -0.700352      1.999876
  H      -0.475758      0.591987      1.353054
  H      -3.694426     -0.615762     -0.938367
  H      -4.178107      0.297859      0.494670
  H      -3.501640     -1.645229      1.954622
  H      -4.603962     -2.178328      0.670969
  H      -2.853965     -2.491307      0.524818
  H      -2.608938      2.030067     -0.546754
  H      -0.881889      1.633230     -0.494932
  H      -1.643107      1.779798     -2.783704
  H      -2.935479      0.592925     -2.534056
  H       3.142926     -0.310751     -3.157925
  H       1.913296     -0.390344     -4.462614
  H       1.999156     -1.693103     -3.225166
  H       3.197259      0.742937     -0.703023
  H       1.897192      1.473361      0.277704
  H       1.801553     -0.575954      1.669991
  H       3.570559     -2.336539      1.467285
  H       4.221137     -1.523216      0.021131
  H       2.590608     -2.239081     -0.017762
  H       3.257912      1.340676      2.357608
  H       3.966029     -0.209283      2.869672
  H       4.622167      0.640066      1.450734
42
Coordinates from ORCA-job opt E -1378.792922726373
  C      -2.181766      1.279657      2.387455
  C      -1.519550      0.244567      1.476641
  N      -2.109537      0.066617      0.156543
  C      -3.478748     -0.424322      0.138090
  C      -3.661824     -1.746919      0.868332
  C      -1.888288      1.188713     -0.727153
  C      -1.928533      0.857319     -2.217070
  S      -0.867036     -0.538258     -2.731651
  P       1.000496      0.323889     -2.364190
  C       2.136172     -0.605286     -3.399756
  O       1.029981      1.811226     -2.526120
  O       1.321947     -0.160687     -0.848905
  C       2.306837      0.525952     -0.066465
  C       2.726435     -0.364308      1.093680
  C       3.336636     -1.673929      0.599689
  C       3.682170      0.402065      2.006792
  H      -2.182531      2.282570      1.932179
  H      -1.635744      1.346532      3.340773
  H      -3.224840      1.015221      2.621656
  H      -1.502139     -0.731692      1.987605
  H      -0.462959      0.516966      1.320108
  H      -3.764621     -0.572731     -0.915218
  H      -4.194901      0.327745      0.538900
  H      -3.527494     -1.650326      1.956106
  H      -4.675289     -2.137417      0.695006
  H      -2.938009     -2.490469      0.499377
  H      -2.618639      2.015062     -0.574430
  H      -0.896672      1.610888     -0.499599
  H      -1.637002      1.743350     -2.797529
  H      -2.930878      0.556470     -2.555493
  H       3.161089     -0.305526     -3.134230
  H       1.946741     -0.367788     -4.455043
  H       2.012656     -1.682983     -3.226444
  H       3.184622      0.774487     -0.690483
  H       1.875419      1.471613      0.300228
  H       1.809843     -0.597660      1.665097
  H       3.604806     -2.326887      1.444054
  H       4.253487     -1.480209      0.017835
  H       2.635441     -2.221016     -0.046842
  H       3.227989      1.331061      2.384891
  H       3.967289     -0.210879      2.875019
  H       4.606947      0.672457      1.470565
42
Coordinates from ORCA-job opt E -1378.792980532720
  C      -2.129761      1.267843      2.383567
  C      -1.501303      0.224471      1.458569
  N      -2.118062      0.062635      0.148663
  C      -3.492841     -0.412908      0.147004
  C      -3.679555     -1.747215      0.855202
  C      -1.897756      1.184279     -0.735488
  C      -1.939615      0.847376     -2.224289
  S      -0.869282     -0.545361     -2.731043
  P       0.996416      0.325305     -2.360766
  C       2.144548     -0.608203     -3.378444
  O       1.025808      1.810500     -2.536507
  O       1.306808     -0.144950     -0.838199
  C       2.297292      0.537261     -0.060446
  C       2.718914     -0.354148      1.098423
  C       3.328873     -1.663036      0.601694
  C       3.675896      0.411001      2.011177
  H      -2.120931      2.271323      1.929807
  H      -1.567614      1.323524      3.328143
  H      -3.173299      1.020080      2.633329
  H      -1.492094     -0.753462      1.965863
  H      -0.442835      0.477761      1.285151
  H      -3.799128     -0.537816     -0.903740
  H      -4.193426      0.339271      0.573358
  H      -3.528774     -1.671023      1.942357
  H      -4.699427     -2.124242      0.689970
  H      -2.968383     -2.491139      0.463356
  H      -2.629159      2.009191     -0.582583
  H      -0.907099      1.609496     -0.510482
  H      -1.650911      1.731643     -2.808966
  H      -2.941481      0.541818     -2.559577
  H       3.167086     -0.313027     -3.100035
  H       1.969044     -0.371243     -4.436172
  H       2.012623     -1.684584     -3.202840
  H       3.172665      0.783743     -0.688390
  H       1.870117      1.483929      0.308857
  H       1.803581     -0.588738      1.671045
  H       3.595733     -2.318369      1.444589
  H       4.246363     -1.468799      0.021180
  H       2.627715     -2.208321     -0.046433
  H       3.220178      1.337929      2.392426
  H       3.964331     -0.203401      2.877171
  H       4.598743      0.684737      1.473497
42
Coordinates from ORCA-job opt E -1378.793012627437
  C      -2.108261      1.274034      2.373126
  C      -1.506464      0.216218      1.446372
  N      -2.138117      0.060406      0.143539
  C      -3.518177     -0.397074      0.155658
  C      -3.712604     -1.733703      0.857662
  C      -1.911780      1.175276     -0.747762
  C      -1.946698      0.823943     -2.234027
  S      -0.863757     -0.565263     -2.723602
  P       0.994259      0.320210     -2.346280
  C       2.156628     -0.601019     -3.358839
  O       1.012739      1.805353     -2.523990
  O       1.302874     -0.146775     -0.822075
  C       2.291562      0.537191     -0.044538
  C       2.734702     -0.363921      1.098364
  C       3.367251     -1.653163      0.578169
  C       3.679993      0.405109      2.019684
  H      -2.083946      2.275411      1.914982
  H      -1.538783      1.323106      3.313770
  H      -3.154577      1.045680      2.630389
  H      -1.510336     -0.760154      1.957310
  H      -0.444891      0.448624      1.262582
  H      -3.838866     -0.510258     -0.892195
  H      -4.204161      0.360803      0.595824
  H      -3.550611     -1.664008      1.943883
  H      -4.738143     -2.098909      0.700566
  H      -3.012732     -2.483004      0.455712
  H      -2.644234      2.000728     -0.603297
  H      -0.922684      1.603412     -0.522320
  H      -1.662256      1.704266     -2.827083
  H      -2.946152      0.508784     -2.567508
  H       3.175797     -0.301323     -3.073477
  H       1.985895     -0.361518     -4.416844
  H       2.029895     -1.678874     -3.186737
  H       3.158276      0.804158     -0.676288
  H       1.855378      1.473007      0.342215
  H       1.826742     -0.625819      1.670916
  H       3.648050     -2.317788      1.409346
  H       4.279532     -1.432984     -0.001476
  H       2.674009     -2.200596     -0.076875
  H       3.204991      1.314997      2.418560
  H       3.985504     -0.217703      2.873795
  H       4.594155      0.708267      1.482785
42
Coordinates from ORCA-job opt E -1378.793039849992
  C      -2.071890      1.259086      2.367641
  C      -1.498411      0.196583      1.427790
  N      -2.149442      0.055864      0.133570
  C      -3.534871     -0.382830      0.163566
  C      -3.734339     -1.725940      0.852023
  C      -1.919827      1.170242     -0.758062
  C      -1.950452      0.813930     -2.243445
  S      -0.861266     -0.571980     -2.725818
  P       0.991168      0.318993     -2.337762
  C       2.165255     -0.606161     -3.333030
  O       1.008030      1.802863     -2.529089
  O       1.287982     -0.134565     -0.807032
  C       2.281389      0.548112     -0.034016
  C       2.735233     -0.356931      1.100975
  C       3.370306     -1.640580      0.569647
  C       3.681130      0.411882      2.022007
  H      -2.035634      2.262439      1.914145
  H      -1.491499      1.293826      3.302338
  H      -3.119071      1.045890      2.634786
  H      -1.510699     -0.782295      1.934451
  H      -0.435802      0.412532      1.230473
  H      -3.875547     -0.476598     -0.879862
  H      -4.202887      0.377961      0.626716
  H      -3.555473     -1.670207      1.936637
  H      -4.766353     -2.077721      0.706251
  H      -3.048649     -2.478071      0.431164
  H      -2.652811      1.995576     -0.615028
  H      -0.931369      1.599266     -0.531652
  H      -1.670490      1.692926     -2.840800
  H      -2.948694      0.492124     -2.574480
  H       3.181651     -0.302479     -3.041872
  H       2.002754     -0.375160     -4.394329
  H       2.040297     -1.683405     -3.154146
  H       3.143195      0.820055     -0.670609
  H       1.846587      1.481411      0.360810
  H       1.831769     -0.626830      1.677265
  H       3.656663     -2.310029      1.395241
  H       4.279310     -1.413944     -0.012996
  H       2.675632     -2.186391     -0.085582
  H       3.201568      1.315764      2.429379
  H       3.994994     -0.214703      2.870429
  H       4.590562      0.724626      1.482305
42
Coordinates from ORCA-job opt E -1378.793055397148
  C      -2.033265      1.241663      2.361756
  C      -1.494855      0.170680      1.410610
  N      -2.166701      0.047913      0.125277
  C      -3.560262     -0.363190      0.173533
  C      -3.774812     -1.712324      0.845846
  C      -1.927258      1.159222     -0.767771
  C      -1.950172      0.796093     -2.251729
  S      -0.852697     -0.586094     -2.723389
  P       0.991272      0.316210     -2.328295
  C       2.177283     -0.610951     -3.307566
  O       1.001757      1.798823     -2.532298
  O       1.276710     -0.123309     -0.791283
  C       2.271629      0.561084     -0.020978
  C       2.742046     -0.349411      1.102673
  C       3.384236     -1.622816      0.555842
  C       3.686207      0.420599      2.024473
  H      -1.980476      2.245680      1.911089
  H      -1.440757      1.260351      3.289312
  H      -3.081424      1.049834      2.640898
  H      -1.520794     -0.809468      1.914402
  H      -0.430828      0.364212      1.198731
  H      -3.922084     -0.432201     -0.864723
  H      -4.203910      0.403412      0.661284
  H      -3.577516     -1.675205      1.928047
  H      -4.815668     -2.042358      0.712214
  H      -3.110275     -2.470950      0.403242
  H      -2.658214      1.987118     -0.630693
  H      -0.938826      1.586091     -0.537251
  H      -1.675310      1.673224     -2.854136
  H      -2.945716      0.464776     -2.582166
  H       3.190276     -0.299245     -3.012842
  H       2.020448     -0.389984     -4.371880
  H       2.058210     -1.687613     -3.121047
  H       3.126161      0.845393     -0.661970
  H       1.832798      1.487815      0.384728
  H       1.845050     -0.632549      1.682979
  H       3.679831     -2.298280      1.373272
  H       4.288215     -1.384045     -0.029871
  H       2.689781     -2.167584     -0.100613
  H       3.199064      1.315109      2.443377
  H       4.012025     -0.210704      2.864885
  H       4.588821      0.748108      1.482030
42
Coordinates from ORCA-job opt E -1378.793068486718
  C      -2.035260      1.234210      2.362185
  C      -1.508645      0.157574      1.410924
  N      -2.182674      0.042871      0.125552
  C      -3.581811     -0.350002      0.176638
  C      -3.811424     -1.701241      0.839733
  C      -1.931411      1.151766     -0.767609
  C      -1.945390      0.785152     -2.250681
  S      -0.843767     -0.595658     -2.715533
  P       0.996705      0.310990     -2.321723
  C       2.184494     -0.618640     -3.296607
  O       1.003795      1.793162     -2.531247
  O       1.280216     -0.121670     -0.782524
  C       2.275345      0.566396     -0.014690
  C       2.761405     -0.347240      1.099815
  C       3.411976     -1.610832      0.540929
  C       3.702816      0.425934      2.021772
  H      -1.971750      2.237642      1.911567
  H      -1.441815      1.246415      3.289248
  H      -3.085081      1.053844      2.642308
  H      -1.545342     -0.822273      1.914540
  H      -0.442897      0.339563      1.198674
  H      -3.949991     -0.404763     -0.860232
  H      -4.211964      0.421201      0.674475
  H      -3.605967     -1.676059      1.920675
  H      -4.857913     -2.014960      0.710856
  H      -3.161506     -2.465706      0.385653
  H      -2.659926      1.982608     -0.637547
  H      -0.943187      1.575334     -0.530294
  H      -1.672454      1.661393     -2.855096
  H      -2.938504      0.448319     -2.583391
  H       3.196711     -0.301050     -3.005210
  H       2.026031     -0.404814     -4.362144
  H       2.070889     -1.694876     -3.104882
  H       3.122751      0.862511     -0.659636
  H       1.830989      1.486665      0.399319
  H       1.870367     -0.642502      1.683374
  H       3.717817     -2.289366      1.351948
  H       4.310498     -1.360233     -0.048216
  H       2.718599     -2.157050     -0.115420
  H       3.208715      1.312307      2.449536
  H       4.039310     -0.208040      2.855922
  H       4.599250      0.766249      1.477037
42
Coordinates from ORCA-job opt E -1378.793085588468
  C      -2.026045      1.219163      2.362570
  C      -1.517277      0.136088      1.409266
  N      -2.195380      0.034414      0.124420
  C      -3.600183     -0.338007      0.179155
  C      -3.846103     -1.691993      0.830304
  C      -1.932321      1.143480     -0.765521
  C      -1.941159      0.778144     -2.248577
  S      -0.836909     -0.601823     -2.709820
  P       1.002113      0.307607     -2.318829
  C       2.190982     -0.628564     -3.286108
  O       1.009310      1.788630     -2.535944
  O       1.281402     -0.115460     -0.776212
  C       2.276197      0.576221     -0.010486
  C       2.773027     -0.337639      1.099371
  C       3.425220     -1.597366      0.534403
  C       3.717186      0.437496      2.017000
  H      -1.950585      2.221810      1.912223
  H      -1.428830      1.222834      3.287248
  H      -3.076970      1.053486      2.647063
  H      -1.568362     -0.843939      1.911159
  H      -0.449405      0.302593      1.195627
  H      -3.975174     -0.376320     -0.855943
  H      -4.214884      0.437647      0.688542
  H      -3.627185     -1.683026      1.908779
  H      -4.899522     -1.985369      0.710599
  H      -3.216169     -2.462846      0.359278
  H      -2.656414      1.978365     -0.638900
  H      -0.943167      1.561093     -0.521767
  H      -1.668422      1.654730     -2.852495
  H      -2.932492      0.438753     -2.584143
  H       3.202584     -0.308303     -2.995428
  H       2.034141     -0.421239     -4.353142
  H       2.078008     -1.703700     -3.088924
  H       3.118227      0.879869     -0.658654
  H       1.827126      1.492248      0.407388
  H       1.886555     -0.636852      1.687747
  H       3.738554     -2.276117      1.342234
  H       4.319144     -1.342259     -0.059623
  H       2.730036     -2.144958     -0.118749
  H       3.222888      1.321210      2.449721
  H       4.061233     -0.196959      2.847618
  H       4.609025      0.781990      1.467551
42
Coordinates from ORCA-job opt E -1378.793094504458
  C      -2.028331      1.210422      2.362773
  C      -1.530444      0.120333      1.412082
  N      -2.206752      0.026292      0.125139
  C      -3.616035     -0.330845      0.177963
  C      -3.877388     -1.685959      0.820188
  C      -1.932979      1.136109     -0.761099
  C      -1.938193      0.772838     -2.244273
  S      -0.831496     -0.606826     -2.702081
  P       1.007479      0.304611     -2.314685
  C       2.195822     -0.635823     -3.278244
  O       1.015548      1.784781     -2.535491
  O       1.286359     -0.112289     -0.770206
  C       2.279962      0.583443     -0.006143
  C       2.787737     -0.329905      1.099486
  C       3.438575     -1.587686      0.528990
  C       3.738942      0.446415      2.009015
  H      -1.944885      2.211071      1.909614
  H      -1.429188      1.211454      3.286188
  H      -3.079990      1.055859      2.650463
  H      -1.594772     -0.858629      1.914118
  H      -0.460272      0.274667      1.201086
  H      -3.991445     -0.358965     -0.857281
  H      -4.220905      0.449058      0.691885
  H      -3.646349     -1.691037      1.896037
  H      -4.936935     -1.960241      0.709580
  H      -3.266862     -2.463385      0.334727
  H      -2.652756      1.974834     -0.636854
  H      -0.942862      1.547776     -0.511348
  H      -1.664098      1.649900     -2.846911
  H      -2.928132      0.432861     -2.583252
  H       3.207186     -0.315033     -2.987397
  H       2.040427     -0.430789     -4.345920
  H       2.081693     -1.710331     -3.079117
  H       3.116415      0.894858     -0.657550
  H       1.825387      1.494880      0.415486
  H       1.906606     -0.630443      1.694970
  H       3.761241     -2.265073      1.334194
  H       4.326506     -1.329928     -0.072679
  H       2.739532     -2.137521     -0.117981
  H       3.249143      1.330470      2.445945
  H       4.090471     -0.187726      2.836676
  H       4.626038      0.790637      1.451906
42
Coordinates from ORCA-job opt E -1378.793102205884
  C      -2.010853      1.195702      2.361339
  C      -1.534266      0.099345      1.406914
  N      -2.217221      0.018097      0.122592
  C      -3.630803     -0.321171      0.180464
  C      -3.906576     -1.678435      0.811841
  C      -1.934369      1.128108     -0.760868
  C      -1.937080      0.765595     -2.244281
  S      -0.827645     -0.613501     -2.698069
  P       1.009513      0.302927     -2.311256
  C       2.202046     -0.640896     -3.266120
  O       1.017196      1.781692     -2.540026
  O       1.284629     -0.104572     -0.763368
  C       2.278812      0.593124     -0.001951
  C       2.793841     -0.319791      1.100598
  C       3.443509     -1.576526      0.526213
  C       3.749762      0.457445      2.004352
  H      -1.915972      2.195309      1.908055
  H      -1.406109      1.187952      3.281101
  H      -3.062856      1.056255      2.655591
  H      -1.612409     -0.879437      1.907285
  H      -0.462603      0.236942      1.191735
  H      -4.011998     -0.335544     -0.852969
  H      -4.222371      0.462338      0.704246
  H      -3.663201     -1.698328      1.884826
  H      -4.971732     -1.934338      0.711018
  H      -3.314599     -2.460865      0.311653
  H      -2.650063      1.970378     -0.637200
  H      -0.943052      1.534479     -0.507506
  H      -1.661632      1.642520     -2.846623
  H      -2.926215      0.425321     -2.585164
  H       3.212146     -0.319429     -2.971784
  H       2.051416     -0.439090     -4.335116
  H       2.086258     -1.714662     -3.063688
  H       3.111522      0.908709     -0.656130
  H       1.822254      1.502138      0.422889
  H       1.916532     -0.621523      1.701108
  H       3.772110     -2.253271      1.329608
  H       4.327618     -1.317125     -0.080415
  H       2.741890     -2.127805     -0.116752
  H       3.262716      1.341950      2.443563
  H       4.106163     -0.176131      2.830383
  H       4.633691      0.801245      1.441913
42
Coordinates from ORCA-job opt E -1378.793107806090
  C      -2.019683      1.200792      2.361484
  C      -1.539320      0.102622      1.410874
  N      -2.217276      0.017734      0.124331
  C      -3.630021     -0.325745      0.176293
  C      -3.905695     -1.681371      0.811164
  C      -1.934448      1.128156     -0.758742
  C      -1.937821      0.766333     -2.242393
  S      -0.828829     -0.613447     -2.695907
  P       1.008660      0.304166     -2.309381
  C       2.201249     -0.636992     -3.266698
  O       1.015717      1.783078     -2.536403
  O       1.287211     -0.105229     -0.762417
  C       2.282282      0.592026     -0.002109
  C       2.797296     -0.320326      1.100810
  C       3.442483     -1.579872      0.526958
  C       3.758493      0.455563      2.000186
  H      -1.924805      2.199450      1.906026
  H      -1.417438      1.196208      3.282930
  H      -3.072396      1.061009      2.653337
  H      -1.618736     -0.875232      1.912893
  H      -0.466917      0.240314      1.199170
  H      -4.004756     -0.346678     -0.859447
  H      -4.227440      0.458402      0.692677
  H      -3.666572     -1.697040      1.885250
  H      -4.970071     -1.939402      0.707264
  H      -3.310198     -2.464846      0.316777
  H      -2.649939      1.970567     -0.633698
  H      -0.942814      1.534034     -0.505808
  H      -1.659949      1.643085     -2.843972
  H      -2.927523      0.428608     -2.583951
  H       3.211362     -0.317172     -2.970708
  H       2.051108     -0.431807     -4.335134
  H       2.084102     -1.711178     -3.066753
  H       3.115029      0.906147     -0.657071
  H       1.827185      1.501781      0.422919
  H       1.920875     -0.618887      1.704201
  H       3.772682     -2.255248      1.330938
  H       4.325170     -1.323283     -0.083028
  H       2.737984     -2.131569     -0.112520
  H       3.277095      1.344013      2.437825
  H       4.113998     -0.176984      2.827440
  H       4.642670      0.793353      1.434391
42
Coordinates from ORCA-job opt E -1378.793106576370
  C      -2.019189      1.201109      2.360381
  C      -1.540071      0.102414      1.409671
  N      -2.218790      0.017641      0.123731
  C      -3.631429     -0.325711      0.176241
  C      -3.907141     -1.680974      0.811965
  C      -1.936038      1.127545     -0.759952
  C      -1.938086      0.764439     -2.243307
  S      -0.828215     -0.615125     -2.694852
  P       1.007781      0.304992     -2.307431
  C       2.202352     -0.634269     -3.264276
  O       1.012485      1.783919     -2.535102
  O       1.286397     -0.103970     -0.760314
  C       2.282906      0.592434     -0.001174
  C       2.798638     -0.320438      1.100938
  C       3.442063     -1.580490      0.526117
  C       3.761464      0.454601      1.999317
  H      -1.922582      2.199727      1.905134
  H      -1.417481      1.195554      3.282172
  H      -3.072301      1.062605      2.651475
  H      -1.620026     -0.875269      1.912004
  H      -0.467664      0.238967      1.197200
  H      -4.006384     -0.347074     -0.859446
  H      -4.228931      0.458600      0.692499
  H      -3.669575     -1.695317      1.886462
  H      -4.971233     -1.939705      0.706955
  H      -3.310208     -2.464588      0.319529
  H      -2.652063      1.969577     -0.635378
  H      -0.944672      1.534103     -0.506983
  H      -1.659984      1.640640     -2.845562
  H      -2.927607      0.426183     -2.584926
  H       3.211961     -0.313469     -2.967598
  H       2.052514     -0.429201     -4.332769
  H       2.086454     -1.708612     -3.064247
  H       3.115370      0.905867     -0.656886
  H       1.829450      1.502608      0.424744
  H       1.922825     -0.618716      1.705416
  H       3.772715     -2.256252      1.329606
  H       4.324179     -1.324507     -0.085002
  H       2.736331     -2.131612     -0.112524
  H       3.281457      1.343880      2.436833
  H       4.116687     -0.177975      2.826683
  H       4.645642      0.790998      1.432656
42
Coordinates from ORCA-job opt E -1378.793107857981
  C      -2.018901      1.197553      2.360828
  C      -1.542038      0.098417      1.409458
  N      -2.220850      0.015984      0.123531
  C      -3.633770     -0.325763      0.175459
  C      -3.911389     -1.680469      0.811586
  C      -1.936536      1.126113     -0.759347
  C      -1.936917      0.763642     -2.242846
  S      -0.826803     -0.615826     -2.693638
  P       1.008013      0.306648     -2.306881
  C       2.204076     -0.632122     -3.262599
  O       1.010338      1.785396     -2.536535
  O       1.286558     -0.100460     -0.759226
  C       2.285600      0.594857     -0.002439
  C       2.800139     -0.317132      1.100981
  C       3.438123     -1.580885      0.528213
  C       3.767199      0.456673      1.995894
  H      -1.918325      2.196420      1.906954
  H      -1.418687      1.189003      3.283574
  H      -3.072943      1.061942      2.649927
  H      -1.624446     -0.879377      1.911233
  H      -0.469265      0.232339      1.197078
  H      -4.008317     -0.346832     -0.860405
  H      -4.230844      0.459135      0.691486
  H      -3.676011     -1.694148      1.886610
  H      -4.975446     -1.938576      0.704774
  H      -3.313751     -2.464788      0.321118
  H      -2.652224      1.968393     -0.634649
  H      -0.945122      1.531937     -0.505273
  H      -1.657804      1.639834     -2.844600
  H      -2.926288      0.425719     -2.585333
  H       3.213347     -0.310404     -2.965734
  H       2.054404     -0.428228     -4.331321
  H       2.089161     -1.706369     -3.061390
  H       3.118526      0.904655     -0.659350
  H       1.835327      1.507193      0.422200
  H       1.924374     -0.611121      1.707705
  H       3.767936     -2.255724      1.332826
  H       4.319959     -1.329444     -0.085227
  H       2.729357     -2.131245     -0.107717
  H       3.291729      1.349792      2.430550
  H       4.120094     -0.174517      2.825312
  H       4.652416      0.786919      1.427214
42
Coordinates from ORCA-job opt E -1378.793111127972
  C      -2.021536      1.196699      2.360677
  C      -1.544210      0.097707      1.409409
  N      -2.222726      0.015446      0.123312
  C      -3.635551     -0.326713      0.174702
  C      -3.913196     -1.681161      0.811381
  C      -1.938399      1.125753     -0.759324
  C      -1.936894      0.762999     -2.242697
  S      -0.825455     -0.615937     -2.691805
  P       1.008371      0.308483     -2.305456
  C       2.205459     -0.629419     -3.260873
  O       1.008679      1.787183     -2.535700
  O       1.287177     -0.097846     -0.757632
  C       2.288800      0.596042     -0.002898
  C       2.802481     -0.315546      1.101323
  C       3.434976     -1.582613      0.529861
  C       3.774086      0.456622      1.992739
  H      -1.920136      2.195696      1.907300
  H      -1.422298      1.187599      3.284042
  H      -3.075930      1.061302      2.648539
  H      -1.626740     -0.880090      1.911121
  H      -0.471402      0.231652      1.197288
  H      -4.009711     -0.348171     -0.861288
  H      -4.233104      0.458110      0.690279
  H      -3.679276     -1.694076      1.886715
  H      -4.976980     -1.939834      0.703318
  H      -3.314536     -2.465473      0.322154
  H      -2.654896      1.967415     -0.635397
  H      -0.947579      1.532362     -0.504190
  H      -1.657655      1.639112     -2.844471
  H      -2.925707      0.424244     -2.586001
  H       3.214476     -0.306870     -2.964074
  H       2.055642     -0.426011     -4.329652
  H       2.091541     -1.703695     -3.059317
  H       3.121836      0.902688     -0.661158
  H       1.841380      1.510207      0.420753
  H       1.926981     -0.605372      1.710415
  H       3.764192     -2.256876      1.335185
  H       4.316344     -1.335393     -0.085947
  H       2.723030     -2.131859     -0.103453
  H       3.303275      1.353191      2.425333
  H       4.125203     -0.173644      2.823602
  H       4.659985      0.781217      1.421886
42
Coordinates from ORCA-job opt E -1378.793112524221
  C      -2.024005      1.194969      2.361700
  C      -1.544816      0.097305      1.409870
  N      -2.222813      0.015165      0.123447
  C      -3.635262     -0.328655      0.173939
  C      -3.911793     -1.683059      0.811198
  C      -1.939133      1.126117     -0.758558
  C      -1.936865      0.764124     -2.242118
  S      -0.824636     -0.614210     -2.691228
  P       1.008985      0.311041     -2.306005
  C       2.206087     -0.626905     -3.261419
  O       1.008403      1.789654     -2.536645
  O       1.288138     -0.094714     -0.758101
  C       2.292674      0.597232     -0.005427
  C       2.802372     -0.313003      1.101775
  C       3.427905     -1.585365      0.534490
  C       3.778732      0.457240      1.989657
  H      -1.923377      2.194477      1.909314
  H      -1.425526      1.185658      3.285549
  H      -3.078492      1.058132      2.648514
  H      -1.626191     -0.880919      1.910910
  H      -0.472119      0.232829      1.198202
  H      -4.008715     -0.351010     -0.862276
  H      -4.234126      0.455677      0.688704
  H      -3.679857     -1.694830      1.886947
  H      -4.974931     -1.943570      0.701255
  H      -3.311044     -2.466712      0.323474
  H      -2.656393      1.967133     -0.634711
  H      -0.948773      1.533405     -0.502742
  H      -1.657712      1.640629     -2.843354
  H      -2.925281      0.424917     -2.586101
  H       3.215179     -0.304174     -2.965122
  H       2.055891     -0.423871     -4.330210
  H       2.092372     -1.701123     -3.059517
  H       3.127098      0.898061     -0.664640
  H       1.849139      1.514740      0.415011
  H       1.925815     -0.596027      1.712519
  H       3.754282     -2.258325      1.342041
  H       4.310044     -1.344881     -0.082850
  H       2.712647     -2.133177     -0.096306
  H       3.313552      1.358684      2.418188
  H       4.126028     -0.171373      2.823362
  H       4.666520      0.773843      1.417265
42
Coordinates from ORCA-job opt E -1378.793111276564
  C      -2.025083      1.195469      2.361519
  C      -1.545185      0.098136      1.409677
  N      -2.223360      0.015417      0.123356
  C      -3.635732     -0.328806      0.174154
  C      -3.911672     -1.683366      0.811344
  C      -1.940082      1.126136     -0.759063
  C      -1.937404      0.763398     -2.242451
  S      -0.824107     -0.614417     -2.690578
  P       1.009117      0.311655     -2.305395
  C       2.206489     -0.625591     -3.261095
  O       1.008038      1.790291     -2.535570
  O       1.288527     -0.094314     -0.757592
  C       2.293797      0.597063     -0.005331
  C       2.803046     -0.313215      1.102031
  C       3.427356     -1.586257      0.534909
  C       3.780400      0.456484      1.989292
  H      -1.925809      2.194973      1.908837
  H      -1.426118      1.186987      3.285061
  H      -3.079263      1.057556      2.648931
  H      -1.625591     -0.880127      1.910786
  H      -0.472662      0.234602      1.197793
  H      -4.009458     -0.351157     -0.861959
  H      -4.234615      0.455371      0.689082
  H      -3.679508     -1.695155      1.887028
  H      -4.974716     -1.944314      0.701486
  H      -3.310809     -2.466711      0.323272
  H      -2.657852      1.966830     -0.635962
  H      -0.950045      1.534129     -0.503171
  H      -1.658891      1.639836     -2.844094
  H      -2.925440      0.423169     -2.586497
  H       3.215519     -0.302538     -2.964984
  H       2.056060     -0.422285     -4.329806
  H       2.093151     -1.699917     -3.059589
  H       3.128249      0.897001     -0.664915
  H       1.850980      1.515068      0.414767
  H       1.926474     -0.595272      1.713170
  H       3.753422     -2.259252      1.342554
  H       4.309506     -1.346659     -0.082740
  H       2.711419     -2.133602     -0.095517
  H       3.316182      1.358558      2.417544
  H       4.127345     -0.172087      2.823175
  H       4.668324      0.772046      1.416543
