32
Coordinates from ORCA-job opt E -1016.179298919392
  C           4.30937750048978      0.61581960013928      1.73098509082187
  C           4.03489155692194      0.31483213553439      0.27681400305142
  O           2.63975208577028      0.54031003595004      0.01884315517354
  P           1.93707813434676     -0.06168072756737     -1.29282114654939
  O           2.45771658430805     -1.39056409939987     -1.71078090180740
  F           2.33383189363594      1.03021736751925     -2.39469621999472
  N           0.36017297974835      0.23642064472969     -1.10987270468745
  C          -0.46049512335105     -0.42884347443850     -0.32731468447788
  C          -0.00591462065927     -1.56089221967168      0.55975817382911
  N          -1.74496725200750     -0.05756396011623     -0.29188810869674
  C          -2.74148661460776     -0.66455767222916      0.59204650911794
  C          -3.51933491394770     -1.79272191789210     -0.07249076180485
  C          -2.21326857140320      1.03986091601892     -1.13957082881695
  C          -2.04199291671830      2.40243216215847     -0.48185261729901
  H           5.37339101592191      0.44757133356904      1.95189557909448
  H           3.71056397031129     -0.03861687265851      2.38160660875203
  H           4.06703558686292      1.66231199376584      1.96766255541214
  H           4.62680964168859      0.96822853425149     -0.38488578188052
  H           4.27897569991171     -0.73009042659240      0.02962347081053
  H          -0.76976657429898     -2.33479834616663      0.69293397145591
  H           0.25815242851640     -1.15923306571645      1.55065543906276
  H           0.88687033151099     -2.02610073265632      0.12518086855087
  H          -3.42598812900663      0.14017009758376      0.89899173772768
  H          -2.25411576309017     -1.00968464156022      1.51262198105253
  H          -4.28446531012712     -2.17932722021441      0.61632832813689
  H          -4.02665195751596     -1.44022604460163     -0.98307045756905
  H          -2.85577475900865     -2.62510961114257     -0.35157236895080
  H          -1.65940125852425      0.99848870671364     -2.08608953054303
  H          -3.27260916299457      0.84743380178706     -1.36475141438759
  H          -0.97965823836352      2.60581029602946     -0.28380412680545
  H          -2.42694203076340      3.19230744532075     -1.14345057126250
  H          -2.59178620355686      2.45779600155299      0.47023824348363
