32
Coordinates from ORCA-job opt E -1016.167984159446
  C       4.596942      0.888391      1.567988
  C       4.064276      0.217604      0.318840
  O       2.657938      0.377556      0.282185
  P       1.913008     -0.160093     -1.048116
  O       2.300172     -1.566049     -1.403635
  F       2.479858      0.819590     -2.141584
  N       0.365947      0.209855     -0.938963
  C      -0.525217     -0.424106     -0.240278
  C      -0.117869     -1.644041      0.573006
  N      -1.855046     -0.004144     -0.265213
  C      -2.950690     -0.663381      0.445610
  C      -3.436029     -1.882506     -0.321988
  C      -2.247232      1.152640     -1.084030
  C      -2.062217      2.443711     -0.302159
  H       5.683534      0.784319      1.633988
  H       4.144742      0.450137      2.463859
  H       4.342953      1.953562      1.571791
  H       4.509952      0.672371     -0.571569
  H       4.308039     -0.849274      0.333155
  H      -0.835121     -1.894818      1.353031
  H       0.840519     -1.470626      1.068780
  H      -0.022100     -2.500104     -0.100987
  H      -3.792275      0.029242      0.573000
  H      -2.654818     -0.935860      1.463186
  H      -4.271974     -2.353399      0.204569
  H      -3.778263     -1.604434     -1.324391
  H      -2.644153     -2.628898     -0.435905
  H      -1.669451      1.189321     -2.014975
  H      -3.295983      1.063904     -1.393267
  H      -1.016526      2.587768     -0.011892
  H      -2.368022      3.301676     -0.908831
  H      -2.664893      2.440085      0.612071
32
Coordinates from ORCA-job opt E -1016.176126256225
  C       4.561874      0.865913      1.581339
  C       4.066812      0.235217      0.297791
  O       2.643151      0.365544      0.242885
  P       1.895238     -0.126909     -1.100907
  O       2.317081     -1.486642     -1.556440
  F       2.395951      0.955020     -2.142411
  N       0.339558      0.219265     -0.927663
  C      -0.540743     -0.432028     -0.215120
  C      -0.187902     -1.636418      0.625996
  N      -1.818858     -0.023318     -0.256025
  C      -2.908872     -0.688973      0.452918
  C      -3.443325     -1.899298     -0.305845
  C      -2.174993      1.128658     -1.082086
  C      -2.018310      2.442797     -0.325339
  H       5.654576      0.779284      1.656187
  H       4.108634      0.373743      2.454964
  H       4.288595      1.931092      1.621571
  H       4.517876      0.737311     -0.573230
  H       4.336600     -0.832079      0.263615
  H      -0.945956     -1.871885      1.382231
  H       0.759224     -1.460887      1.150041
  H      -0.069125     -2.504190     -0.037391
  H      -3.720886      0.037415      0.593585
  H      -2.592572     -0.970413      1.467971
  H      -4.286068     -2.352261      0.237533
  H      -3.798609     -1.607609     -1.305778
  H      -2.668512     -2.669573     -0.434532
  H      -1.558271      1.136085     -1.991472
  H      -3.214906      1.011570     -1.419010
  H      -0.975927      2.594374     -0.009037
  H      -2.308951      3.290706     -0.963531
  H      -2.652386      2.458486      0.574459
32
Coordinates from ORCA-job opt E -1016.177532456863
  C       4.526914      0.832883      1.615730
  C       4.061547      0.206870      0.321035
  O       2.639763      0.380426      0.214425
  P       1.896840     -0.094728     -1.136184
  O       2.329995     -1.431491     -1.631078
  F       2.375164      1.031373     -2.153646
  N       0.339886      0.254090     -0.940323
  C      -0.530682     -0.416944     -0.223715
  C      -0.139856     -1.622359      0.591835
  N      -1.807150     -0.024349     -0.251621
  C      -2.891256     -0.685961      0.473354
  C      -3.452148     -1.897503     -0.263251
  C      -2.186486      1.114151     -1.083953
  C      -2.037749      2.445304     -0.356986
  H       5.614011      0.708849      1.726977
  H       4.030488      0.359262      2.476909
  H       4.292556      1.908464      1.635155
  H       4.555325      0.686035     -0.541350
  H       4.296875     -0.869885      0.296538
  H      -0.874076     -1.894410      1.354954
  H       0.818196     -1.427371      1.092904
  H      -0.003844     -2.475849     -0.089566
  H      -3.684635      0.062099      0.612870
  H      -2.563122     -0.955360      1.486045
  H      -4.296146     -2.329196      0.295750
  H      -3.814288     -1.611621     -1.263365
  H      -2.689748     -2.682081     -0.388902
  H      -1.575746      1.103308     -1.995575
  H      -3.230438      0.963748     -1.397922
  H      -0.990125      2.617220     -0.066918
  H      -2.354092      3.274834     -1.007633
  H      -2.655973      2.470193      0.554779
32
Coordinates from ORCA-job opt E -1016.178021133777
  C       4.492674      0.775024      1.657764
  C       4.057724      0.173398      0.343156
  O       2.643601      0.386812      0.191057
  P       1.907879     -0.062507     -1.169521
  O       2.349591     -1.376384     -1.703425
  F       2.375941      1.103309     -2.159190
  N       0.350034      0.294540     -0.962067
  C      -0.514806     -0.392489     -0.245941
  C      -0.096984     -1.593969      0.559779
  N      -1.797011     -0.016011     -0.258597
  C      -2.856809     -0.680198      0.503208
  C      -3.441289     -1.891299     -0.210409
  C      -2.218537      1.104492     -1.101950
  C      -2.082795      2.451245     -0.405624
  H       5.572462      0.621412      1.798901
  H       3.962075      0.301244      2.497251
  H       4.288554      1.855815      1.679613
  H       4.586979      0.645789     -0.501146
  H       4.261180     -0.908767      0.308423
  H      -0.829559     -1.907257      1.308386
  H       0.851232     -1.371656      1.067615
  H       0.082392     -2.430645     -0.132372
  H      -3.637558      0.076328      0.666223
  H      -2.489618     -0.946671      1.503263
  H      -4.267707     -2.316300      0.377484
  H      -3.833763     -1.608621     -1.199385
  H      -2.684230     -2.677362     -0.354252
  H      -1.621068      1.083373     -2.021649
  H      -3.265306      0.917077     -1.383909
  H      -1.031462      2.652045     -0.152457
  H      -2.437650      3.257246     -1.064590
  H      -2.676166      2.480984      0.521638
32
Coordinates from ORCA-job opt E -1016.178139023009
  C       4.490966      0.745460      1.665562
  C       4.058155      0.162489      0.342290
  O       2.648488      0.395513      0.182275
  P       1.905902     -0.046030     -1.175463
  O       2.348978     -1.352324     -1.723323
  F       2.363699      1.130653     -2.162208
  N       0.348097      0.313307     -0.957754
  C      -0.508410     -0.378509     -0.236602
  C      -0.077687     -1.580051      0.564961
  N      -1.794737     -0.012975     -0.256055
  C      -2.853207     -0.674679      0.512740
  C      -3.438337     -1.886591     -0.196970
  C      -2.221325      1.097843     -1.112419
  C      -2.108929      2.449341     -0.422698
  H       5.568390      0.579479      1.809805
  H       3.953150      0.266690      2.497037
  H       4.298692      1.827681      1.697601
  H       4.596473      0.636487     -0.494790
  H       4.246578     -0.921530      0.295860
  H      -0.816921     -1.927787      1.290800
  H       0.852843     -1.338901      1.095788
  H       0.142738     -2.400041     -0.134766
  H      -3.632190      0.083047      0.678476
  H      -2.480184     -0.939550      1.510549
  H      -4.263179     -2.309278      0.394482
  H      -3.832964     -1.607490     -1.185650
  H      -2.680795     -2.671931     -0.339208
  H      -1.609755      1.077543     -2.023592
  H      -3.261907      0.894243     -1.404078
  H      -1.062712      2.664613     -0.162109
  H      -2.468040      3.245338     -1.091086
  H      -2.711873      2.477941      0.497818
32
Coordinates from ORCA-job opt E -1016.178232208165
  C       4.480290      0.712541      1.679390
  C       4.055009      0.159786      0.340774
  O       2.649572      0.406880      0.172006
  P       1.906572     -0.028129     -1.185952
  O       2.357412     -1.327291     -1.743819
  F       2.356035      1.157615     -2.169086
  N       0.346006      0.325271     -0.967542
  C      -0.502612     -0.374047     -0.245647
  C      -0.058070     -1.564103      0.566653
  N      -1.791755     -0.015906     -0.262704
  C      -2.842238     -0.669647      0.524439
  C      -3.443087     -1.878444     -0.177198
  C      -2.226812      1.086710     -1.126226
  C      -2.123249      2.441779     -0.442261
  H       5.555839      0.538671      1.828078
  H       3.934988      0.218657      2.496854
  H       4.293262      1.794700      1.732507
  H       4.603170      0.646659     -0.482210
  H       4.235073     -0.924426      0.273520
  H      -0.809057     -1.949323      1.260660
  H       0.842161     -1.291115      1.133524
  H       0.221733     -2.367185     -0.130964
  H      -3.614837      0.091225      0.705536
  H      -2.451769     -0.937718      1.514426
  H      -4.260485     -2.297615      0.427177
  H      -3.851774     -1.598814     -1.159764
  H      -2.690110     -2.665868     -0.330456
  H      -1.612215      1.066561     -2.035414
  H      -3.265594      0.874357     -1.417785
  H      -1.078223      2.666408     -0.185350
  H      -2.490222      3.230903     -1.114674
  H      -2.725014      2.470910      0.478783
32
Coordinates from ORCA-job opt E -1016.178322557150
  C       4.474318      0.670507      1.690701
  C       4.054429      0.157791      0.334307
  O       2.653169      0.420871      0.160674
  P       1.907448     -0.011934     -1.194894
  O       2.361315     -1.310302     -1.754245
  F       2.352465      1.174040     -2.180969
  N       0.345042      0.338143     -0.977607
  C      -0.496386     -0.361616     -0.248458
  C      -0.040019     -1.538433      0.575898
  N      -1.789219     -0.015872     -0.268176
  C      -2.831013     -0.664231      0.533390
  C      -3.442294     -1.873141     -0.160385
  C      -2.235116      1.075978     -1.139146
  C      -2.145626      2.436217     -0.462056
  H       5.547940      0.486965      1.841852
  H       3.921020      0.157854      2.491257
  H       4.292691      1.751958      1.772739
  H       4.612962      0.662646     -0.470840
  H       4.226849     -0.925698      0.239832
  H      -0.806254     -1.973557      1.222030
  H       0.812806     -1.227461      1.195057
  H       0.319530     -2.314281     -0.115689
  H      -3.600805      0.096742      0.726419
  H      -2.426421     -0.933259      1.517312
  H      -4.252573     -2.291663      0.454358
  H      -3.863056     -1.595280     -1.138366
  H      -2.690537     -2.660271     -0.322148
  H      -1.618836      1.058427     -2.046767
  H      -3.271556      0.852883     -1.431727
  H      -1.102899      2.673969     -0.207420
  H      -2.522228      3.217290     -1.138947
  H      -2.747148      2.464715      0.459285
32
Coordinates from ORCA-job opt E -1016.178507059080
  C       4.451160      0.613141      1.710847
  C       4.051197      0.168241      0.324522
  O       2.655213      0.448020      0.139119
  P       1.910648      0.008279     -1.212772
  O       2.373118     -1.291823     -1.765345
  F       2.347577      1.189981     -2.207226
  N       0.344134      0.347371     -1.002022
  C      -0.487429     -0.355295     -0.263850
  C      -0.010755     -1.510268      0.578384
  N      -1.783210     -0.022828     -0.279151
  C      -2.810293     -0.656756      0.550130
  C      -3.454373     -1.859646     -0.126612
  C      -2.245072      1.056334     -1.155601
  C      -2.159712      2.424509     -0.491710
  H       5.521872      0.420016      1.870469
  H       3.883620      0.065446      2.477863
  H       4.270154      1.690079      1.842833
  H       4.626701      0.708109     -0.445470
  H       4.220815     -0.910564      0.182692
  H      -0.790929     -2.045482      1.124530
  H       0.736086     -1.137773      1.294340
  H       0.500981     -2.216801     -0.090801
  H      -3.567116      0.111336      0.765802
  H      -2.381638     -0.931063      1.522156
  H      -4.252842     -2.269868      0.509054
  H      -3.897817     -1.579285     -1.093906
  H      -2.713928     -2.653710     -0.307598
  H      -1.637093      1.037406     -2.068492
  H      -3.282599      0.825386     -1.438659
  H      -1.116350      2.673279     -0.249846
  H      -2.549976      3.196174     -1.171967
  H      -2.752143      2.458057      0.435562
32
Coordinates from ORCA-job opt E -1016.178668374564
  C       4.400141      0.518658      1.737001
  C       4.047183      0.198398      0.303904
  O       2.657859      0.493635      0.097231
  P       1.919596      0.031603     -1.247804
  O       2.398477     -1.275083     -1.778952
  F       2.343107      1.199641     -2.260698
  N       0.346258      0.348731     -1.050143
  C      -0.471013     -0.351949     -0.291998
  C       0.033453     -1.463288      0.589528
  N      -1.769715     -0.038407     -0.298758
  C      -2.769905     -0.649220      0.575479
  C      -3.478804     -1.832902     -0.073443
  C      -2.256954      1.023258     -1.178917
  C      -2.171733      2.403257     -0.536113
  H       5.466443      0.317293      1.914694
  H       3.810320     -0.095194      2.434467
  H       4.206389      1.578801      1.959842
  H       4.647372      0.805282     -0.394384
  H       4.226974     -0.863712      0.075165
  H      -0.719323     -2.173463      0.939630
  H       0.536434     -1.012539      1.459277
  H       0.800252     -2.004740      0.018277
  H      -3.497558      0.133905      0.834543
  H      -2.300319     -0.941269      1.522995
  H      -4.255125     -2.228114      0.598162
  H      -3.962522     -1.538455     -1.017151
  H      -2.765777     -2.642290     -0.294691
  H      -1.668038      1.000738     -2.103888
  H      -3.298038      0.783862     -1.442116
  H      -1.126421      2.664485     -0.315750
  H      -2.581171      3.162315     -1.219470
  H      -2.747841      2.446763      0.401353
32
Coordinates from ORCA-job opt E -1016.178859969137
  C       4.392322      0.541824      1.733726
  C       4.047353      0.225360      0.297694
  O       2.651454      0.493800      0.093779
  P       1.921325      0.014039     -1.251301
  O       2.403238     -1.299536     -1.764610
  F       2.346807      1.170544     -2.271199
  N       0.347876      0.324016     -1.058709
  C      -0.475084     -0.368854     -0.298467
  C       0.013200     -1.485573      0.586314
  N      -1.769472     -0.041593     -0.298790
  C      -2.770223     -0.655072      0.572209
  C      -3.483366     -1.835376     -0.078192
  C      -2.250339      1.030011     -1.168862
  C      -2.136424      2.407660     -0.525544
  H       5.461523      0.357629      1.912640
  H       3.809995     -0.086673      2.424557
  H       4.178537      1.596615      1.964127
  H       4.636834      0.849291     -0.394722
  H       4.249446     -0.831322      0.062283
  H      -0.757603     -2.179517      0.931383
  H       0.511057     -1.041262      1.462547
  H       0.774710     -2.044910      0.025723
  H      -3.496504      0.129239      0.831630
  H      -2.303570     -0.950536      1.520530
  H      -4.259460     -2.230715      0.593293
  H      -3.968026     -1.535593     -1.019931
  H      -2.774246     -2.646989     -0.303834
  H      -1.676748      1.000347     -2.103400
  H      -3.298444      0.808134     -1.419366
  H      -1.085007      2.650588     -0.312662
  H      -2.537986      3.175947     -1.202971
  H      -2.703176      2.458479      0.417398
32
Coordinates from ORCA-job opt E -1016.179093367213
  C       4.343875      0.518118      1.745555
  C       4.040532      0.268458      0.287156
  O       2.641865      0.512154      0.066101
  P       1.927066      0.008863     -1.279707
  O       2.425399     -1.303804     -1.778907
  F       2.340898      1.161955     -2.304872
  N       0.351170      0.300841     -1.088488
  C      -0.467572     -0.384931     -0.316957
  C       0.015829     -1.496733      0.578792
  N      -1.759045     -0.047103     -0.302403
  C      -2.748501     -0.652088      0.588270
  C      -3.487641     -1.824146     -0.045532
  C      -2.244740      1.024194     -1.169879
  C      -2.102496      2.405348     -0.541896
  H       5.412462      0.347554      1.941048
  H       3.758355     -0.158477      2.386194
  H       4.100431      1.554454      2.024413
  H       4.628029      0.941415     -0.359279
  H       4.274416     -0.769119      0.001949
  H      -0.745429     -2.240332      0.830731
  H       0.395989     -1.050895      1.512149
  H       0.855123     -2.001951      0.083522
  H      -3.459490      0.142194      0.860354
  H      -2.266341     -0.952460      1.527365
  H      -4.252482     -2.210087      0.643707
  H      -3.990002     -1.518164     -0.975888
  H      -2.793932     -2.644403     -0.286518
  H      -1.691614      0.978279     -2.116527
  H      -3.300136      0.810853     -1.395761
  H      -1.044799      2.635283     -0.346920
  H      -2.503451      3.173273     -1.219653
  H      -2.653766      2.471456      0.409159
32
Coordinates from ORCA-job opt E -1016.179177509979
  C       4.308628      0.581682      1.743071
  C       4.034085      0.292874      0.286613
  O       2.637378      0.521330      0.034702
  P       1.932440     -0.033065     -1.298537
  O       2.440546     -1.349750     -1.764833
  F       2.334025      1.100293     -2.352469
  N       0.358186      0.262155     -1.101890
  C      -0.461499     -0.409703     -0.322808
  C      -0.000752     -1.546916      0.555593
  N      -1.748119     -0.045962     -0.292501
  C      -2.741746     -0.657564      0.594333
  C      -3.489658     -1.813381     -0.052825
  C      -2.223341      1.042202     -1.149006
  C      -2.060681      2.412503     -0.508501
  H       5.372938      0.412513      1.961927
  H       3.709813     -0.079103      2.386845
  H       4.065128      1.625795      1.987611
  H       4.625025      0.951127     -0.370845
  H       4.275877     -0.749707      0.027989
  H      -0.791143     -2.273443      0.770161
  H       0.361990     -1.133704      1.509992
  H       0.829251     -2.074398      0.070191
  H      -3.441544      0.143553      0.875301
  H      -2.257674     -0.973094      1.527421
  H      -4.253011     -2.200373      0.637320
  H      -3.994839     -1.488612     -0.974775
  H      -2.807035     -2.637757     -0.308086
  H      -1.671599      0.991533     -2.096935
  H      -3.281674      0.837883     -1.368000
  H      -0.999971      2.623560     -0.311481
  H      -2.448874      3.191679     -1.180342
  H      -2.612152      2.475850      0.442037
32
Coordinates from ORCA-job opt E -1016.179274560710
  C       4.293926      0.573735      1.744181
  C       4.030606      0.299448      0.282675
  O       2.638477      0.537524      0.018935
  P       1.935952     -0.034810     -1.306861
  O       2.452041     -1.355309     -1.755700
  F       2.333140      1.084559     -2.377695
  N       0.359050      0.254497     -1.117526
  C      -0.456341     -0.415140     -0.332790
  C       0.012930     -1.537122      0.559915
  N      -1.743888     -0.054346     -0.298551
  C      -2.731640     -0.659607      0.598057
  C      -3.504897     -1.800523     -0.048421
  C      -2.222758      1.034436     -1.151517
  C      -2.058389      2.403544     -0.506919
  H       5.355247      0.397490      1.971564
  H       3.685786     -0.088864      2.377513
  H       4.053318      1.617040      1.995847
  H       4.631146      0.960807     -0.363022
  H       4.270396     -0.742204      0.018017
  H      -0.745502     -2.310992      0.718093
  H       0.295026     -1.118793      1.539249
  H       0.899425     -2.007729      0.118130
  H      -3.418386      0.145629      0.898559
  H      -2.236438     -0.989850      1.520090
  H      -4.261745     -2.185601      0.650193
  H      -4.021418     -1.461693     -0.958959
  H      -2.836293     -2.630160     -0.323197
  H      -1.673877      0.988172     -2.100928
  H      -3.281768      0.832069     -1.369457
  H      -0.997066      2.614590     -0.312286
  H      -2.448990      3.184715     -1.175346
  H      -2.607068      2.464488      0.445434
32
Coordinates from ORCA-job opt E -1016.179289163792
  C       4.305539      0.584918      1.739102
  C       4.032676      0.295500      0.282272
  O       2.640680      0.536579      0.022374
  P       1.934860     -0.039047     -1.299794
  O       2.449776     -1.361581     -1.743999
  F       2.332998      1.074420     -2.377687
  N       0.358129      0.254654     -1.111421
  C      -0.458489     -0.414240     -0.327646
  C       0.008376     -1.538008      0.563280
  N      -1.746037     -0.053852     -0.295633
  C      -2.737471     -0.661254      0.594498
  C      -3.506452     -1.801042     -0.059873
  C      -2.222256      1.035825     -1.148778
  C      -2.060497      2.403287     -0.499101
  H       5.367450      0.406980      1.962368
  H       3.699010     -0.068159      2.383907
  H       4.070650      1.631995      1.980709
  H       4.632728      0.947253     -0.373725
  H       4.267150     -0.750089      0.028463
  H      -0.753624     -2.307532      0.726819
  H       0.300608     -1.121948      1.540268
  H       0.889166     -2.012590      0.114087
  H      -3.427298      0.141428      0.894800
  H      -2.246303     -0.994086      1.517509
  H      -4.266770     -2.189170      0.633388
  H      -4.018547     -1.460241     -0.972208
  H      -2.835514     -2.629239     -0.333651
  H      -1.668834      0.992782     -2.095474
  H      -3.280313      0.834396     -1.372327
  H      -0.999780      2.614528     -0.300695
  H      -2.449555      3.186322     -1.166367
  H      -2.612057      2.461210      0.451808
32
Coordinates from ORCA-job opt E -1016.179293746608
  C       4.306990      0.597458      1.736168
  C       4.032777      0.300981      0.281044
  O       2.640166      0.538002      0.021098
  P       1.935335     -0.046762     -1.297358
  O       2.453204     -1.370709     -1.733243
  F       2.332220      1.059673     -2.384076
  N       0.358332      0.248469     -1.110687
  C      -0.459412     -0.419218     -0.327377
  C       0.002575     -1.546814      0.561296
  N      -1.745806     -0.054692     -0.293390
  C      -2.739299     -0.661928      0.594092
  C      -3.509846     -1.798376     -0.064537
  C      -2.219073      1.037419     -1.145286
  C      -2.053365      2.403058     -0.492448
  H       5.369477      0.421941      1.958699
  H       3.702713     -0.053958      2.384795
  H       4.071102      1.645269      1.973641
  H       4.630712      0.951055     -0.378607
  H       4.269344     -0.745262      0.031925
  H      -0.761304     -2.317033      0.713546
  H       0.286529     -1.137708      1.543579
  H       0.886330     -2.018866      0.115427
  H      -3.428257      0.140770      0.896319
  H      -2.249542     -0.998605      1.516423
  H      -4.271897     -2.186743      0.626772
  H      -4.020174     -1.454114     -0.976563
  H      -2.840534     -2.627491     -0.339651
  H      -1.664856      0.994656     -2.091502
  H      -3.277573      0.839522     -1.369762
  H      -0.991989      2.610969     -0.293935
  H      -2.440351      3.188763     -1.157864
  H      -2.604527      2.460272      0.458734
32
Coordinates from ORCA-job opt E -1016.179296269006
  C       4.307296      0.607000      1.733530
  C       4.033370      0.307424      0.278984
  O       2.639723      0.538985      0.019275
  P       1.936340     -0.054572     -1.295914
  O       2.456220     -1.380647     -1.723000
  F       2.332823      1.044797     -2.390336
  N       0.359248      0.241753     -1.111243
  C      -0.459642     -0.424026     -0.327506
  C      -0.001460     -1.553496      0.560951
  N      -1.745071     -0.055999     -0.292357
  C      -2.740018     -0.663286      0.593217
  C      -3.514291     -1.795430     -0.068712
  C      -2.215923      1.038754     -1.142252
  C      -2.047638      2.402800     -0.486667
  H       5.370438      0.434984      1.955711
  H       3.705472     -0.045472      2.383372
  H       4.068356      1.654362      1.969872
  H       4.628762      0.958605     -0.381853
  H       4.273622     -0.738373      0.031620
  H      -0.765773     -2.325232      0.703446
  H       0.272605     -1.148318      1.547666
  H       0.886579     -2.022610      0.120672
  H      -3.426841      0.140206      0.898117
  H      -2.251238     -1.004443      1.514525
  H      -4.277571     -2.183433      0.621438
  H      -4.023580     -1.446723     -0.979636
  H      -2.847877     -2.625989     -0.346452
  H      -1.661578      0.996829     -2.088457
  H      -3.274768      0.843562     -1.367357
  H      -0.985851      2.608345     -0.287978
  H      -2.433288      3.190765     -1.150189
  H      -2.598446      2.458879      0.464791
32
Coordinates from ORCA-job opt E -1016.179298258343
  C       4.307813      0.610751      1.732565
  C       4.033936      0.311285      0.277971
  O       2.639522      0.539614      0.019031
  P       1.936783     -0.057878     -1.294666
  O       2.457347     -1.385150     -1.717492
  F       2.333332      1.038099     -2.392562
  N       0.359725      0.239144     -1.110945
  C      -0.459963     -0.426350     -0.327672
  C      -0.003634     -1.557217      0.560026
  N      -1.744887     -0.056644     -0.292131
  C      -2.740391     -0.663646      0.592937
  C      -3.516487     -1.794062     -0.069821
  C      -2.214702      1.039219     -1.141089
  C      -2.044783      2.402702     -0.484828
  H       5.371411      0.440788      1.954166
  H       3.707612     -0.043313      2.382296
  H       4.066822      1.657452      1.969720
  H       4.627570      0.964123     -0.382777
  H       4.276428     -0.733866      0.030136
  H      -0.767581     -2.330370      0.696932
  H       0.264528     -1.154172      1.549242
  H       0.887246     -2.023896      0.123009
  H      -3.426100      0.140460      0.898786
  H      -2.252124     -1.006514      1.513882
  H      -4.280509     -2.181273      0.619919
  H      -4.025030     -1.443760     -0.980558
  H      -2.851473     -2.625551     -0.348140
  H      -1.660819      0.997353     -2.087564
  H      -3.273850      0.845352     -1.365927
  H      -0.982666      2.607216     -0.286788
  H      -2.430247      3.191474     -1.147464
  H      -2.594831      2.458630      0.467081
32
Coordinates from ORCA-job opt E -1016.179298919392
  C       4.309378      0.615820      1.730985
  C       4.034892      0.314832      0.276814
  O       2.639752      0.540310      0.018843
  P       1.937078     -0.061681     -1.292821
  O       2.457717     -1.390564     -1.710781
  F       2.333832      1.030217     -2.394696
  N       0.360173      0.236421     -1.109873
  C      -0.460495     -0.428843     -0.327315
  C      -0.005915     -1.560892      0.559758
  N      -1.744967     -0.057564     -0.291888
  C      -2.741487     -0.664558      0.592047
  C      -3.519335     -1.792722     -0.072491
  C      -2.213269      1.039861     -1.139571
  C      -2.041993      2.402432     -0.481853
  H       5.373391      0.447571      1.951896
  H       3.710564     -0.038617      2.381607
  H       4.067036      1.662312      1.967663
  H       4.626810      0.968229     -0.384886
  H       4.278976     -0.730090      0.029623
  H      -0.769767     -2.334798      0.692934
  H       0.258152     -1.159233      1.550655
  H       0.886870     -2.026101      0.125181
  H      -3.425988      0.140170      0.898992
  H      -2.254116     -1.009685      1.512622
  H      -4.284465     -2.179327      0.616328
  H      -4.026652     -1.440226     -0.983070
  H      -2.855775     -2.625110     -0.351572
  H      -1.659401      0.998489     -2.086090
  H      -3.272609      0.847434     -1.364751
  H      -0.979658      2.605810     -0.283804
  H      -2.426942      3.192307     -1.143451
  H      -2.591786      2.457796      0.470238
