28
Coordinates from ORCA-job opt E -901.741970148357
  C          -2.37604941603623     -1.38833900604977      1.41360737026698
  C          -2.06206161588842     -0.94273520756022     -0.00896877377139
  N          -0.97091797161287      0.02849464558470     -0.08113097340064
  C          -1.33788497722884      1.43039950000438      0.11702005530422
  C          -1.62035005965474      2.15667355602683     -1.19146940554198
  C           0.30649177458720     -0.30166208033164     -0.33329770905693
  C           0.62729948614459     -1.76653249894902     -0.50893291435426
  N           1.18671091987066      0.66011931219078     -0.43047550254379
  P           2.80049993052065      0.69924246217067     -0.57997921177789
  C           3.56728015996709      0.27352608996050      0.98508058291719
  O           3.32969971200115      1.93920357287703     -1.21195489455800
  F           3.24141986518383     -0.57801268537431     -1.48895132649438
  H          -3.22996308944926     -2.08149812498155      1.41109432769313
  H          -2.63845322283667     -0.53023944583982      2.05071543943744
  H          -1.51713612003351     -1.90220886782292      1.87088257491930
  H          -2.94602253452109     -0.46790918286125     -0.46147362967967
  H          -1.82821161140732     -1.80573375000153     -0.64457831845085
  H          -2.22566942460964      1.44680492535031      0.76638225985345
  H          -0.52186788173407      1.92444350253144      0.65994260689899
  H          -1.91702187635248      3.19673639295423     -0.99011249584664
  H          -0.72276226470008      2.17151067008873     -1.82650123783102
  H          -2.43657548795256      1.67121084850406     -1.74835971392544
  H           0.20213187527397     -2.13270670977523     -1.45578547093017
  H           0.20329115928796     -2.36705963229280      0.30612818992486
  H           1.70801025714573     -1.92450288740635     -0.54330641488202
  H           4.65786683018465      0.23565562102129      0.85620229554288
  H           3.31767492630804      1.05212797043910      1.71927388218289
  H           3.20257065754228     -0.69700897045763      1.34894840810374
