28
Coordinates from ORCA-job opt E -901.728792734173
  C      -2.386548     -1.430638      1.367695
  C      -2.093404     -0.904366     -0.028906
  N      -0.999446      0.067088      0.008410
  C      -1.409658      1.470887      0.165996
  C      -1.626491      2.129568     -1.188117
  C       0.336396     -0.249486     -0.230087
  C       0.738435     -1.702020     -0.418494
  N       1.217426      0.698237     -0.316754
  P       2.782222      0.610278     -0.632288
  C       3.593713      0.228082      0.917995
  O       3.392962      1.830693     -1.264767
  F       2.938283     -0.582934     -1.647697
  H      -3.196795     -2.165509      1.333320
  H      -2.691948     -0.620299      2.037881
  H      -1.508168     -1.911222      1.809291
  H      -3.001499     -0.438909     -0.431470
  H      -1.866189     -1.732614     -0.708460
  H      -2.337820      1.529634      0.747425
  H      -0.663159      2.030047      0.742304
  H      -1.945079      3.168315     -1.056447
  H      -0.709540      2.129628     -1.785782
  H      -2.398345      1.607539     -1.762931
  H       0.648867     -1.959030     -1.477624
  H       0.107801     -2.372677      0.167405
  H       1.765006     -1.876620     -0.092786
  H       4.664356      0.079938      0.752987
  H       3.462017      1.049109      1.628150
  H       3.186606     -0.682719      1.363750
28
Coordinates from ORCA-job opt E -901.738041427234
  C      -2.391455     -1.428738      1.399472
  C      -2.065603     -0.924694     -0.003782
  N      -0.978192      0.049447     -0.005528
  C      -1.354036      1.454321      0.124310
  C      -1.596534      2.115610     -1.228267
  C       0.309308     -0.274294     -0.237644
  C       0.630745     -1.743624     -0.408419
  N       1.182614      0.692845     -0.296432
  P       2.772155      0.718687     -0.594871
  C       3.623022      0.221634      0.903410
  O       3.307575      2.013356     -1.126483
  F       3.042898     -0.401914     -1.690597
  H      -3.214942     -2.157812      1.365313
  H      -2.698550     -0.599338      2.054363
  H      -1.520538     -1.916176      1.862580
  H      -2.958120     -0.451233     -0.438092
  H      -1.824815     -1.765315     -0.669348
  H      -2.264676      1.516869      0.737867
  H      -0.571672      1.993068      0.676593
  H      -1.893890      3.166402     -1.093200
  H      -0.688597      2.094715     -1.848291
  H      -2.398441      1.603270     -1.781836
  H       0.547477     -2.008805     -1.472090
  H      -0.053557     -2.378679      0.167843
  H       1.644075     -1.967376     -0.066621
  H       4.705792      0.158757      0.722236
  H       3.437870      0.973639      1.680919
  H       3.270086     -0.754622      1.266596
28
Coordinates from ORCA-job opt E -901.740647120704
  C      -2.425056     -1.449755      1.377280
  C      -2.085816     -0.924857     -0.015492
  N      -0.978778      0.028013     -0.023103
  C      -1.331559      1.431727      0.142610
  C      -1.575656      2.146287     -1.182418
  C       0.294775     -0.304018     -0.256912
  C       0.616699     -1.768663     -0.434062
  N       1.171375      0.661178     -0.338219
  P       2.774590      0.680558     -0.608873
  C       3.637773      0.321959      0.923160
  O       3.290698      1.909216     -1.282871
  F       3.094372     -0.582018     -1.547715
  H      -3.278412     -2.144431      1.329403
  H      -2.695919     -0.623459      2.054289
  H      -1.570216     -1.984721      1.822224
  H      -2.959567     -0.407427     -0.440820
  H      -1.870496     -1.751719     -0.704226
  H      -2.235182      1.471975      0.770864
  H      -0.528677      1.928367      0.702781
  H      -1.857838      3.196273     -1.005191
  H      -0.667829      2.135655     -1.805543
  H      -2.390620      1.665703     -1.748865
  H       0.478104     -2.045900     -1.491637
  H      -0.020276     -2.412358      0.182064
  H       1.659803     -1.968400     -0.161245
  H       4.722339      0.260919      0.744117
  H       3.436416      1.149458      1.618254
  H       3.294953     -0.619560      1.380144
28
Coordinates from ORCA-job opt E -901.741520764335
  C      -2.413719     -1.434434      1.380839
  C      -2.082403     -0.929251     -0.018101
  N      -0.979967      0.030946     -0.048057
  C      -1.345630      1.433492      0.138618
  C      -1.613705      2.162850     -1.171487
  C       0.298294     -0.302479     -0.286180
  C       0.622076     -1.766112     -0.458477
  N       1.185142      0.656167     -0.371444
  P       2.796885      0.663589     -0.603898
  C       3.637405      0.320421      0.943608
  O       3.319166      1.865795     -1.311529
  F       3.157126     -0.654397     -1.472297
  H      -3.272372     -2.120807      1.343948
  H      -2.673370     -0.599514      2.050077
  H      -1.561316     -1.972444      1.824154
  H      -2.954870     -0.415480     -0.449679
  H      -1.863171     -1.762414     -0.698267
  H      -2.240486      1.448852      0.779714
  H      -0.535501      1.925378      0.690928
  H      -1.907013      3.204710     -0.973309
  H      -0.710440      2.173273     -1.799364
  H      -2.428188      1.681451     -1.735854
  H       0.449409     -2.056684     -1.506959
  H       0.010534     -2.409155      0.183518
  H       1.677231     -1.951261     -0.231241
  H       4.722351      0.262845      0.776957
  H       3.421014      1.159190      1.621000
  H       3.285516     -0.614528      1.402784
28
Coordinates from ORCA-job opt E -901.741710696143
  C      -2.413469     -1.421063      1.385931
  C      -2.081111     -0.933170     -0.017506
  N      -0.979404      0.029623     -0.050944
  C      -1.345424      1.433596      0.137832
  C      -1.613481      2.158077     -1.174090
  C       0.301106     -0.304266     -0.283859
  C       0.627843     -1.767621     -0.460553
  N       1.183375      0.656933     -0.376589
  P       2.794324      0.675818     -0.600584
  C       3.628780      0.308577      0.944316
  O       3.305833      1.890430     -1.292645
  F       3.177346     -0.635524     -1.479439
  H      -3.273908     -2.104770      1.354337
  H      -2.671798     -0.579162      2.045861
  H      -1.563823     -1.956906      1.835449
  H      -2.953510     -0.428101     -0.458970
  H      -1.855320     -1.773901     -0.685678
  H      -2.238994      1.450565      0.779405
  H      -0.532514      1.925952      0.686708
  H      -1.907134      3.199617     -0.977648
  H      -0.709815      2.167338     -1.800492
  H      -2.427027      1.675469     -1.737270
  H       0.431469     -2.061852     -1.503412
  H       0.031323     -2.410535      0.195542
  H       1.687573     -1.948581     -0.260240
  H       4.713604      0.266175      0.777567
  H       3.402603      1.127628      1.641965
  H       3.281552     -0.640346      1.375003
28
Coordinates from ORCA-job opt E -901.741816265441
  C      -2.393353     -1.407639      1.398551
  C      -2.075230     -0.935149     -0.013227
  N      -0.976940      0.031327     -0.061191
  C      -1.341804      1.435746      0.131205
  C      -1.621349      2.154055     -1.181781
  C       0.302175     -0.302295     -0.302298
  C       0.627560     -1.765843     -0.481615
  N       1.184050      0.658414     -0.391700
  P       2.794901      0.681944     -0.590840
  C       3.606153      0.295607      0.961855
  O       3.307713      1.903942     -1.268226
  F       3.199984     -0.624191     -1.475407
  H      -3.253921     -2.092012      1.381726
  H      -2.646563     -0.559714      2.052378
  H      -1.539540     -1.938526      1.845593
  H      -2.954061     -0.442249     -0.455619
  H      -1.847672     -1.783374     -0.671047
  H      -2.229107      1.456065      0.780749
  H      -0.523161      1.930227      0.669834
  H      -1.914698      3.195985     -0.986570
  H      -0.722705      2.161933     -1.815123
  H      -2.438525      1.668508     -1.736605
  H       0.392484     -2.066635     -1.514399
  H       0.052997     -2.404242      0.198852
  H       1.693770     -1.944894     -0.320312
  H       4.692759      0.260476      0.805496
  H       3.369839      1.096567      1.676412
  H       3.254246     -0.664033      1.363309
28
Coordinates from ORCA-job opt E -901.741863590780
  C      -2.389206     -1.404956      1.402885
  C      -2.071978     -0.936965     -0.011279
  N      -0.975093      0.030165     -0.061598
  C      -1.339324      1.433994      0.132033
  C      -1.615320      2.153496     -1.181636
  C       0.302962     -0.303665     -0.306071
  C       0.622725     -1.767344     -0.493990
  N       1.185026      0.656453     -0.401405
  P       2.795194      0.683065     -0.589565
  C       3.596185      0.301692      0.969914
  O       3.309058      1.902895     -1.270851
  F       3.211204     -0.625538     -1.467961
  H      -3.249531     -2.090134      1.389304
  H      -2.642978     -0.555223      2.054382
  H      -1.534604     -1.933779      1.851250
  H      -2.952475     -0.449386     -0.456408
  H      -1.841892     -1.788152     -0.664375
  H      -2.228270      1.455451      0.779486
  H      -0.522248      1.927874      0.673238
  H      -1.909710      3.195496     -0.986894
  H      -0.714889      2.162112     -1.812698
  H      -2.430677      1.667836     -1.739384
  H       0.348294     -2.070783     -1.516440
  H       0.070920     -2.402256      0.208813
  H       1.693811     -1.947498     -0.371069
  H       4.683720      0.266545      0.817661
  H       3.357645      1.098644      1.687863
  H       3.241453     -0.660040      1.364797
28
Coordinates from ORCA-job opt E -901.741899414569
  C      -2.382758     -1.403794      1.406737
  C      -2.070479     -0.936942     -0.009586
  N      -0.973362      0.028632     -0.066524
  C      -1.335269      1.431947      0.129179
  C      -1.612727      2.155133     -1.182607
  C       0.303156     -0.305491     -0.317781
  C       0.621112     -1.769859     -0.502497
  N       1.185642      0.654247     -0.416370
  P       2.796436      0.685378     -0.589032
  C       3.582603      0.304226      0.978142
  O       3.316434      1.905096     -1.267119
  F       3.224968     -0.620640     -1.465160
  H      -3.243325     -2.088848      1.398022
  H      -2.633767     -0.553390      2.058706
  H      -1.526179     -1.932342      1.852011
  H      -2.953033     -0.450092     -0.451624
  H      -1.844592     -1.789702     -0.661825
  H      -2.223563      1.453958      0.777761
  H      -0.517928      1.924479      0.671207
  H      -1.906347      3.197068     -0.985830
  H      -0.713462      2.164532     -1.815514
  H      -2.429272      1.670735     -1.740088
  H       0.306124     -2.086082     -1.509358
  H       0.098006     -2.396672      0.229324
  H       1.696689     -1.946056     -0.419042
  H       4.671487      0.266754      0.834579
  H       3.340451      1.097082      1.699169
  H       3.222954     -0.659356      1.365119
28
Coordinates from ORCA-job opt E -901.741926881062
  C      -2.378804     -1.401324      1.409060
  C      -2.066299     -0.938447     -0.008751
  N      -0.970721      0.027573     -0.071330
  C      -1.332589      1.430269      0.126016
  C      -1.612663      2.157843     -1.182775
  C       0.304371     -0.306393     -0.327732
  C       0.619909     -1.771358     -0.508857
  N       1.187243      0.652467     -0.431407
  P       2.799156      0.688466     -0.588819
  C       3.570877      0.303299      0.984522
  O       3.326792      1.908943     -1.260477
  F       3.239588     -0.613482     -1.464152
  H      -3.237620     -2.088428      1.402539
  H      -2.632269     -0.549267      2.058032
  H      -1.521101     -1.926293      1.856418
  H      -2.949496     -0.453978     -0.452252
  H      -1.840231     -1.794024     -0.657485
  H      -2.220455      1.450408      0.775395
  H      -0.515851      1.922402      0.669531
  H      -1.906883      3.198918     -0.982728
  H      -0.714751      2.169904     -1.817565
  H      -2.429887      1.674083     -1.739991
  H       0.253652     -2.105610     -1.492187
  H       0.136705     -2.386938      0.259676
  H       1.699131     -1.941929     -0.477086
  H       4.660832      0.261529      0.850202
  H       3.325867      1.092741      1.708221
  H       3.205499     -0.661375      1.363980
28
Coordinates from ORCA-job opt E -901.741942315580
  C      -2.377892     -1.397620      1.410003
  C      -2.064122     -0.939754     -0.008946
  N      -0.969410      0.027068     -0.075499
  C      -1.331660      1.429552      0.123089
  C      -1.615112      2.159007     -1.183605
  C       0.305590     -0.306478     -0.333637
  C       0.622075     -1.771832     -0.510486
  N       1.187999      0.652485     -0.438787
  P       2.800914      0.692069     -0.587861
  C       3.565086      0.297301      0.986690
  O       3.332272      1.916734     -1.248754
  F       3.247336     -0.603269     -1.468744
  H      -3.235152     -2.086532      1.404351
  H      -2.634290     -0.543634      2.055236
  H      -1.519964     -1.919197      1.860702
  H      -2.947143     -0.457010     -0.454841
  H      -1.837049     -1.797781     -0.653980
  H      -2.218371      1.448053      0.774103
  H      -0.514332      1.921511      0.666033
  H      -1.909180      3.199534     -0.980975
  H      -0.718963      2.172481     -1.820789
  H      -2.433690      1.675760     -1.739231
  H       0.223743     -2.121710     -1.475467
  H       0.168364     -2.378955      0.282811
  H       1.702525     -1.936653     -0.512882
  H       4.655609      0.253838      0.858163
  H       3.317614      1.083691      1.712940
  H       3.197203     -0.668658      1.360365
28
Coordinates from ORCA-job opt E -901.741955133613
  C      -2.378941     -1.392871      1.410911
  C      -2.063075     -0.941110     -0.009170
  N      -0.969327      0.027237     -0.078053
  C      -1.333131      1.429663      0.120631
  C      -1.619357      2.158217     -1.185610
  C       0.306576     -0.305256     -0.334597
  C       0.625586     -1.770398     -0.510322
  N       1.188183      0.654499     -0.437180
  P       2.801837      0.695007     -0.585373
  C       3.565756      0.287686      0.985991
  O       3.333440      1.925695     -1.233952
  F       3.247056     -0.592777     -1.476650
  H      -3.234518     -2.083792      1.405402
  H      -2.639096     -0.536672      2.051557
  H      -1.521294     -1.910643      1.866218
  H      -2.945517     -0.460615     -0.458711
  H      -1.833317     -1.801494     -0.649948
  H      -2.218842      1.446813      0.772952
  H      -0.515132      1.922304      0.661973
  H      -1.913636      3.198442     -0.982077
  H      -0.724418      2.172305     -1.824373
  H      -2.438691      1.674537     -1.739565
  H       0.215080     -2.129160     -1.466568
  H       0.186541     -2.374306      0.293898
  H       1.706472     -1.930664     -0.527313
  H       4.656351      0.244599      0.858993
  H       3.317291      1.072067      1.714255
  H       3.198123     -0.679313      1.356681
28
Coordinates from ORCA-job opt E -901.741960548797
  C      -2.378275     -1.389502      1.411979
  C      -2.062278     -0.942270     -0.009415
  N      -0.969840      0.027758     -0.079836
  C      -1.335280      1.429975      0.118998
  C      -1.620815      2.157320     -1.188015
  C       0.306854     -0.303675     -0.334210
  C       0.626978     -1.768740     -0.509668
  N       1.187792      0.656924     -0.434355
  P       2.801632      0.697417     -0.582899
  C       3.566524      0.279809      0.985248
  O       3.331766      1.933459     -1.221747
  F       3.245150     -0.584343     -1.483627
  H      -3.232600     -2.082040      1.407416
  H      -2.640792     -0.531859      2.049631
  H      -1.520320     -1.904419      1.869836
  H      -2.945042     -0.464862     -0.461614
  H      -1.829559     -1.804395     -0.646662
  H      -2.221414      1.446487      0.770666
  H      -0.517654      1.923141      0.660317
  H      -1.915948      3.197406     -0.984881
  H      -0.725217      2.171855     -1.825817
  H      -2.439229      1.673011     -1.742670
  H       0.207928     -2.132757     -1.460083
  H       0.197355     -2.370488      0.301443
  H       1.707840     -1.926991     -0.536952
  H       4.657151      0.238850      0.858097
  H       3.317166      1.061656      1.716035
  H       3.200130     -0.688729      1.352783
28
Coordinates from ORCA-job opt E -901.741966086547
  C      -2.376828     -1.388460      1.412985
  C      -2.062069     -0.942622     -0.009233
  N      -0.970436      0.028241     -0.080762
  C      -1.336780      1.430290      0.117845
  C      -1.620863      2.156851     -1.190041
  C       0.306679     -0.302458     -0.333829
  C       0.627226     -1.767422     -0.509469
  N       1.187239      0.658772     -0.432051
  P       2.801043      0.698450     -0.581092
  C       3.566860      0.275734      0.985241
  O       3.330421      1.937085     -1.215390
  F       3.242958     -0.580472     -1.486960
  H      -3.230791     -2.081529      1.409664
  H      -2.639506     -0.530433      2.050049
  H      -1.518288     -1.902500      1.870736
  H      -2.945549     -0.466966     -0.461837
  H      -1.828371     -1.805379     -0.645217
  H      -2.223663      1.446755      0.768440
  H      -0.519836      1.923929      0.659752
  H      -1.916822      3.196932     -0.987834
  H      -0.724266      2.171552     -1.826449
  H      -2.438140      1.671896     -1.745800
  H       0.204515     -2.132966     -1.457655
  H       0.201155     -2.368436      0.304134
  H       1.708023     -1.925359     -0.541120
  H       4.657488      0.236563      0.857321
  H       3.317201      1.055843      1.717811
  H       3.201402     -0.693891      1.350759
28
Coordinates from ORCA-job opt E -901.741970148357
  C      -2.376049     -1.388339      1.413607
  C      -2.062062     -0.942735     -0.008969
  N      -0.970918      0.028495     -0.081131
  C      -1.337885      1.430400      0.117020
  C      -1.620350      2.156674     -1.191469
  C       0.306492     -0.301662     -0.333298
  C       0.627299     -1.766532     -0.508933
  N       1.186711      0.660119     -0.430476
  P       2.800500      0.699242     -0.579979
  C       3.567280      0.273526      0.985081
  O       3.329700      1.939204     -1.211955
  F       3.241420     -0.578013     -1.488951
  H      -3.229963     -2.081498      1.411094
  H      -2.638453     -0.530239      2.050715
  H      -1.517136     -1.902209      1.870883
  H      -2.946023     -0.467909     -0.461474
  H      -1.828212     -1.805734     -0.644578
  H      -2.225669      1.446805      0.766382
  H      -0.521868      1.924444      0.659943
  H      -1.917022      3.196736     -0.990112
  H      -0.722762      2.171511     -1.826501
  H      -2.436575      1.671211     -1.748360
  H       0.202132     -2.132707     -1.455785
  H       0.203291     -2.367060      0.306128
  H       1.708010     -1.924503     -0.543306
  H       4.657867      0.235656      0.856202
  H       3.317675      1.052128      1.719274
  H       3.202571     -0.697009      1.348948
