18
Coordinates from ORCA-job opt E -749.674604228538
  C          -1.85988539757653     -0.66262934397161      0.78973701262293
  C          -1.07872386772748      0.03968123171034     -0.30329400492750
  C          -1.62875753295595      1.39780860989624     -0.68795595352884
  O           0.28275011371270      0.24600227246121      0.16959324161291
  P           1.48141360632549     -0.65714473821370     -0.36809135063682
  C           2.87134687570817     -0.16053098973542      0.62082144640789
  O           1.19803503256798     -2.10250615015483     -0.53260657308038
  F           1.79300493863922      0.01175257470476     -1.79435654441689
  H          -1.40419666367848     -1.63623308643595      1.02032612930640
  H          -1.87431880041280     -0.05191126265697      1.70546561800246
  H          -2.89693812094557     -0.83241227825089      0.46518473926873
  H          -1.03766467426077     -0.60744593214058     -1.19540906278628
  H          -2.65202594507750      1.29445399196647     -1.07719200883176
  H          -1.00408735444908      1.85801080790090     -1.46682414275607
  H          -1.65228171899323      2.06526440537627      0.18703216829903
  H           2.71937098322819     -0.51864870034218      1.64785060756550
  H           2.96323387888155      0.93320279283446      0.61491969894834
  H           3.77972464701411     -0.61671421494849      0.20479899893036
