18
Coordinates from ORCA-job opt E -749.667720132332
  C      -1.848545     -0.688342      0.714094
  C      -1.021753      0.058682     -0.321642
  C      -1.629878      1.416656     -0.638939
  O       0.280856      0.274993      0.207036
  P       1.477766     -0.647847     -0.367896
  C       2.881587     -0.144934      0.599313
  O       1.172452     -2.115388     -0.303832
  F       1.573526     -0.177307     -1.863676
  H      -1.391092     -1.655878      0.945756
  H      -1.895689     -0.130762      1.656093
  H      -2.868389     -0.862764      0.358001
  H      -0.964864     -0.530737     -1.244069
  H      -2.640344      1.315124     -1.046279
  H      -1.010890      1.948823     -1.369444
  H      -1.672923      2.048106      0.255453
  H       2.728584     -0.381746      1.655752
  H       3.045769      0.932183      0.507238
  H       3.783828     -0.658862      0.257040
18
Coordinates from ORCA-job opt E -749.672015748391
  C      -1.863797     -0.686655      0.735941
  C      -1.044045      0.054710     -0.308412
  C      -1.625993      1.415983     -0.651969
  O       0.284402      0.261838      0.206276
  P       1.482594     -0.657349     -0.359910
  C       2.885773     -0.142281      0.596288
  O       1.201715     -2.123644     -0.363850
  F       1.636069     -0.124141     -1.839320
  H      -1.409306     -1.663087      0.961302
  H      -1.901140     -0.114128      1.675695
  H      -2.891735     -0.853025      0.383547
  H      -0.993819     -0.552425     -1.227697
  H      -2.640603      1.315745     -1.062233
  H      -0.996655      1.928320     -1.395846
  H      -1.669380      2.056611      0.242413
  H       2.718412     -0.407999      1.647756
  H       3.036621      0.944150      0.520463
  H       3.790885     -0.652624      0.239555
18
Coordinates from ORCA-job opt E -749.674325925333
  C      -1.873267     -0.679214      0.767577
  C      -1.071136      0.044786     -0.296250
  C      -1.615352      1.408321     -0.669655
  O       0.282897      0.240272      0.199909
  P       1.480126     -0.668806     -0.354466
  C       2.879106     -0.139079      0.596191
  O       1.225182     -2.125026     -0.458361
  F       1.723781     -0.038608     -1.800059
  H      -1.426393     -1.661111      0.984327
  H      -1.893360     -0.087151      1.696983
  H      -2.907823     -0.833716      0.426286
  H      -1.024690     -0.585634     -1.202485
  H      -2.632854      1.311294     -1.076906
  H      -0.978747      1.885015     -1.430123
  H      -1.652938      2.061129      0.217523
  H       2.698428     -0.448079      1.635449
  H       3.003869      0.951433      0.547039
  H       3.783172     -0.635825      0.217022
18
Coordinates from ORCA-job opt E -749.674482058074
  C      -1.867417     -0.672699      0.778960
  C      -1.074956      0.041871     -0.297796
  C      -1.620073      1.402922     -0.677877
  O       0.282997      0.242025      0.189243
  P       1.480195     -0.662457     -0.361892
  C       2.875853     -0.147073      0.605311
  O       1.217022     -2.113550     -0.496335
  F       1.750317     -0.007769     -1.797242
  H      -1.417284     -1.651364      0.999690
  H      -1.884260     -0.072477      1.702108
  H      -2.903196     -0.832312      0.444797
  H      -1.029582     -0.596399     -1.197265
  H      -2.639873      1.302534     -1.077570
  H      -0.988237      1.870045     -1.447014
  H      -1.652036      2.062857      0.203143
  H       2.695442     -0.472702      1.639439
  H       2.995436      0.943451      0.571837
  H       3.779650     -0.636903      0.218461
18
Coordinates from ORCA-job opt E -749.674584741402
  C      -1.860260     -0.664413      0.790512
  C      -1.078238      0.038715     -0.301296
  C      -1.627306      1.396920     -0.686860
  O       0.282927      0.245386      0.174968
  P       1.480886     -0.653912     -0.370443
  C       2.872736     -0.158308      0.617883
  O       1.203449     -2.099114     -0.536172
  F       1.780918      0.021200     -1.796706
  H      -1.405127     -1.638588      1.018393
  H      -1.875172     -0.054735      1.706529
  H      -2.897028     -0.832375      0.464393
  H      -1.034250     -0.607882     -1.193300
  H      -2.649849      1.292851     -1.077574
  H      -1.001423      1.855338     -1.465407
  H      -1.652620      2.064651      0.187502
  H       2.700954     -0.504236      1.646317
  H       2.981944      0.933177      0.603567
  H       3.777458     -0.634676      0.217692
18
Coordinates from ORCA-job opt E -749.674596761066
  C      -1.860221     -0.663260      0.790979
  C      -1.078775      0.038538     -0.302176
  C      -1.628170      1.396754     -0.687631
  O       0.282693      0.245285      0.172582
  P       1.481191     -0.654077     -0.370163
  C       2.872527     -0.159814      0.619768
  O       1.200850     -2.099052     -0.537947
  F       1.786777      0.020199     -1.796411
  H      -1.404531     -1.636911      1.020732
  H      -1.875408     -0.052425      1.706357
  H      -2.897014     -0.832697      0.465532
  H      -1.035568     -0.608793     -1.193712
  H      -2.651098      1.293042     -1.077545
  H      -1.002689      1.855118     -1.466756
  H      -1.652482      2.064865      0.186583
  H       2.708285     -0.510428      1.647654
  H       2.975254      0.932640      0.608864
  H       3.778378     -0.628986      0.213289
18
Coordinates from ORCA-job opt E -749.674601058969
  C      -1.860878     -0.662886      0.790067
  C      -1.078982      0.038916     -0.302774
  C      -1.628178      1.397400     -0.687592
  O       0.282481      0.244843      0.171284
  P       1.481404     -0.655915     -0.368534
  C       2.872268     -0.160142      0.620396
  O       1.199369     -2.101365     -0.534652
  F       1.790551      0.014817     -1.795443
  H      -1.405313     -1.636495      1.020974
  H      -1.876234     -0.051950      1.705594
  H      -2.897655     -0.832780      0.464635
  H      -1.036890     -0.608273     -1.194695
  H      -2.651225      1.294516     -1.077556
  H      -1.002607      1.856854     -1.466213
  H      -1.652040      2.064949      0.187271
  H       2.716908     -0.514935      1.648096
  H       2.967439      0.933310      0.611998
  H       3.779581     -0.620865      0.207143
18
Coordinates from ORCA-job opt E -749.674601227161
  C      -1.860688     -0.662817      0.789683
  C      -1.078873      0.039299     -0.302992
  C      -1.628247      1.397712     -0.687653
  O       0.282546      0.245136      0.170646
  P       1.481417     -0.656832     -0.367992
  C       2.871848     -0.160192      0.620486
  O       1.198820     -2.102387     -0.532938
  F       1.791708      0.012526     -1.794763
  H      -1.405197     -1.636470      1.020570
  H      -1.875702     -0.052055      1.705380
  H      -2.897557     -0.832595      0.464500
  H      -1.037367     -0.607766     -1.195117
  H      -2.651353      1.294830     -1.077470
  H      -1.002923      1.857700     -1.466160
  H      -1.651989      2.065052      0.187421
  H       2.719175     -0.516812      1.647934
  H       2.964577      0.933501      0.613317
  H       3.779805     -0.617830      0.205148
18
Coordinates from ORCA-job opt E -749.674604228538
  C      -1.859885     -0.662629      0.789737
  C      -1.078724      0.039681     -0.303294
  C      -1.628758      1.397809     -0.687956
  O       0.282750      0.246002      0.169593
  P       1.481414     -0.657145     -0.368091
  C       2.871347     -0.160531      0.620821
  O       1.198035     -2.102506     -0.532607
  F       1.793005      0.011753     -1.794357
  H      -1.404197     -1.636233      1.020326
  H      -1.874319     -0.051911      1.705466
  H      -2.896938     -0.832412      0.465185
  H      -1.037665     -0.607446     -1.195409
  H      -2.652026      1.294454     -1.077192
  H      -1.004087      1.858011     -1.466824
  H      -1.652282      2.065264      0.187032
  H       2.719371     -0.518649      1.647851
  H       2.963234      0.933203      0.614920
  H       3.779725     -0.616714      0.204799
