32
Coordinates from ORCA-job opt E -1016.173265656012
  C           3.56819770992049      2.21176012318498      1.37945524255895
  C           3.19601686371353      1.76522412106763     -0.01405037677412
  O           2.37495311619961      0.59183378195806      0.09082516593096
  P           1.83759790148873     -0.14173596825199     -1.23388223671863
  O           1.49642344929409      0.77463362777235     -2.35671086665224
  F           3.14973861353768     -0.96920320647637     -1.65156815331947
  N           0.86919418937121     -1.30534465814007     -0.73271249388692
  C          -0.35530688269769     -1.55093827394136     -0.34755527035826
  C          -0.69522417005773     -3.00610348642468     -0.12752810820418
  N          -1.31564826632858     -0.64606316731454     -0.11287145657185
  C          -2.66467168862672     -1.02675933233488      0.32308545169409
  C          -3.64176966130038     -1.17890814524352     -0.83484989529026
  C          -1.10729366773058      0.79546100709676     -0.26017196567796
  C          -0.67271420605316      1.46375686443899      1.03779910908173
  H           4.12033459003413      1.42052533603473      1.90740052140192
  H           4.20596846827727      3.10599090215073      1.32737783855627
  H           2.66981995238361      2.46168798038171      1.96318642674526
  H           4.09492352321801      1.52335022148341     -0.60488296172434
  H           2.63679883178172      2.54657155454466     -0.55262171212236
  H           0.15387090973449     -3.61307848333860     -0.45606620073272
  H          -0.87809329713080     -3.20117042089638      0.93991119823023
  H          -1.59336580856954     -3.30582780887474     -0.68471910001511
  H          -3.01035790199897     -0.24217033419414      1.01208774698493
  H          -2.61570845159707     -1.94657198234147      0.91740775939184
  H          -4.64341172050843     -1.42052784307513     -0.45075721346630
  H          -3.71696145334895     -0.24819806213507     -1.41714496961900
  H          -3.33245752334058     -1.98498354025383     -1.51700783722587
  H          -0.38831869452258      0.97981212574658     -1.06774356631149
  H          -2.05921267212111      1.22149840027748     -0.60997279531186
  H           0.28528883028930      1.05464713651670      1.38706844793349
  H          -1.42555784026272      1.32673627436193      1.82880601326955
  H          -0.54305303304825      2.54409524622006      0.87567975820373
