32
Coordinates from ORCA-job opt E -1016.146251766920
  C       3.989745      2.352470      0.483118
  C       3.172879      1.758574     -0.645654
  O       2.390839      0.697102     -0.129632
  P       1.528315     -0.144265     -1.210927
  O       0.718305      0.739656     -2.115304
  F       2.677307     -0.807900     -2.060173
  N       0.848181     -1.366815     -0.455285
  C      -0.351641     -1.435147      0.005760
  C      -0.741937     -2.789770      0.573832
  N      -1.307008     -0.431281      0.009055
  C      -2.715423     -0.717117     -0.292878
  C      -2.879813     -1.064248     -1.764957
  C      -1.065400      0.814282      0.747129
  C      -1.383990      0.641680      2.224942
  H       4.640326      1.593019      0.929299
  H       4.607800      3.180205      0.124331
  H       3.335501      2.719624      1.280824
  H       3.835124      1.380380     -1.430867
  H       2.514109      2.521265     -1.072491
  H       0.150501     -3.374584      0.816453
  H      -1.329554     -2.659344      1.486784
  H      -1.331350     -3.339884     -0.164488
  H      -3.343179      0.156381     -0.078868
  H      -3.094099     -1.529306      0.336716
  H      -3.934571     -1.241030     -1.997332
  H      -2.521379     -0.247595     -2.400649
  H      -2.319043     -1.965588     -2.031419
  H      -0.025778      1.134260      0.648243
  H      -1.673208      1.623954      0.326397
  H      -0.759504     -0.137356      2.674469
  H      -2.431206      0.361550      2.377588
  H      -1.200852      1.576827      2.763257
32
Coordinates from ORCA-job opt E -1016.155610794684
  C       3.874240      2.345972      0.652204
  C       3.127544      1.798176     -0.544724
  O       2.331635      0.689841     -0.117021
  P       1.522698     -0.129744     -1.250025
  O       0.738810      0.744926     -2.174763
  F       2.713906     -0.796814     -2.053590
  N       0.843391     -1.383178     -0.508490
  C      -0.369551     -1.475390     -0.059913
  C      -0.808512     -2.826090      0.462052
  N      -1.282080     -0.456202     -0.038491
  C      -2.702994     -0.750544     -0.227850
  C      -2.990370     -1.170390     -1.664528
  C      -0.947651      0.820496      0.600950
  C      -1.162405      0.778656      2.110744
  H       4.522812      1.574101      1.092092
  H       4.494996      3.203428      0.359658
  H       3.170109      2.669810      1.432848
  H       3.837294      1.467280     -1.319028
  H       2.473130      2.571104     -0.976323
  H       0.070916     -3.437234      0.690420
  H      -1.412207     -2.705608      1.372123
  H      -1.409054     -3.348108     -0.298418
  H      -3.282941      0.153248     -0.000378
  H      -3.047868     -1.525817      0.477393
  H      -4.067919     -1.338977     -1.806361
  H      -2.666153     -0.389571     -2.367887
  H      -2.464573     -2.100679     -1.928017
  H       0.098119      1.087407      0.393151
  H      -1.558786      1.616017      0.150777
  H      -0.527326      0.011231      2.578419
  H      -2.209493      0.551651      2.361586
  H      -0.909720      1.751002      2.558662
32
Coordinates from ORCA-job opt E -1016.159906475660
  C       3.869982      2.348312      0.723867
  C       3.190116      1.817675     -0.516626
  O       2.354758      0.707179     -0.136978
  P       1.579821     -0.117404     -1.283513
  O       0.865517      0.719312     -2.283174
  F       2.798179     -0.865839     -1.989300
  N       0.860727     -1.349312     -0.507075
  C      -0.375098     -1.464515     -0.093052
  C      -0.825702     -2.833053      0.341454
  N      -1.291454     -0.458744     -0.040719
  C      -2.709064     -0.798819     -0.152325
  C      -3.084323     -1.226638     -1.567162
  C      -0.969582      0.844157      0.549104
  C      -1.145137      0.852724      2.064031
  H       4.490826      1.568640      1.193071
  H       4.514869      3.201401      0.464496
  H       3.124264      2.684311      1.462164
  H       3.935622      1.478469     -1.256721
  H       2.563665      2.593371     -0.989295
  H       0.058545     -3.449427      0.538319
  H      -1.447610     -2.766640      1.246029
  H      -1.417366     -3.321862     -0.450498
  H      -3.272757      0.104953      0.117481
  H      -2.999372     -1.573590      0.580598
  H      -4.167939     -1.411092     -1.638724
  H      -2.815036     -0.439217     -2.289151
  H      -2.564684     -2.151834     -1.865812
  H       0.057220      1.130473      0.298847
  H      -1.617091      1.599284      0.076816
  H      -0.470792      0.122208      2.541374
  H      -2.180109      0.604470      2.352777
  H      -0.910994      1.851047      2.466969
32
Coordinates from ORCA-job opt E -1016.163126916113
  C       3.870016      2.293571      0.884963
  C       3.210283      1.838023     -0.392808
  O       2.378121      0.697585     -0.089206
  P       1.595632     -0.068847     -1.264040
  O       0.899554      0.791993     -2.246732
  F       2.810816     -0.831592     -1.979119
  N       0.870323     -1.324619     -0.514872
  C      -0.378490     -1.491567     -0.154212
  C      -0.777617     -2.892899      0.215090
  N      -1.313851     -0.505774     -0.068041
  C      -2.739342     -0.854510     -0.050228
  C      -3.251383     -1.298815     -1.415284
  C      -0.980795      0.858004      0.351684
  C      -1.036165      1.020649      1.864193
  H       4.493533      1.493126      1.310530
  H       4.511761      3.163164      0.679524
  H       3.115016      2.587532      1.629997
  H       3.959146      1.543488     -1.146953
  H       2.579453      2.628750     -0.830727
  H       0.137262     -3.475369      0.370722
  H      -1.396558     -2.902864      1.121842
  H      -1.350286     -3.375943     -0.590687
  H      -3.264679      0.062022      0.253892
  H      -2.966586     -1.605959      0.722545
  H      -4.336751     -1.474703     -1.377606
  H      -3.048257     -0.521770     -2.168388
  H      -2.773267     -2.230322     -1.752798
  H       0.010790      1.135972     -0.013135
  H      -1.689005      1.537995     -0.146236
  H      -0.299476      0.363301      2.353244
  H      -2.034468      0.779159      2.262546
  H      -0.804733      2.061218      2.137574
32
Coordinates from ORCA-job opt E -1016.165747401644
  C       3.764003      2.334589      0.967491
  C       3.214483      1.827014     -0.341279
  O       2.385978      0.678321     -0.065807
  P       1.683107     -0.132686     -1.255467
  O       1.075179      0.679818     -2.331233
  F       2.942040     -0.942311     -1.844005
  N       0.895934     -1.346051     -0.499978
  C      -0.366587     -1.513892     -0.192725
  C      -0.765399     -2.939580      0.082443
  N      -1.305158     -0.543620     -0.057216
  C      -2.732930     -0.888019      0.049193
  C      -3.360034     -1.245257     -1.291619
  C      -0.987685      0.854298      0.252213
  C      -0.942864      1.101968      1.751931
  H       4.371125      1.563423      1.461825
  H       4.401221      3.211107      0.781513
  H       2.949726      2.636493      1.641541
  H       4.020077      1.522481     -1.028046
  H       2.601929      2.585112     -0.853160
  H       0.153510     -3.526717      0.177547
  H      -1.369488     -3.024454      0.994630
  H      -1.348608     -3.367220     -0.744750
  H      -3.227158      0.009836      0.445258
  H      -2.900056     -1.678589      0.793878
  H      -4.437821     -1.422245     -1.168438
  H      -3.221678     -0.421426     -2.007387
  H      -2.921077     -2.151807     -1.729603
  H      -0.040052      1.147269     -0.198937
  H      -1.753274      1.477338     -0.232598
  H      -0.144826      0.504122      2.217040
  H      -1.897043      0.846503      2.235902
  H      -0.736574      2.164181      1.947119
32
Coordinates from ORCA-job opt E -1016.168869605813
  C       3.651432      2.356452      1.116560
  C       3.235814      1.799902     -0.221388
  O       2.411059      0.645062      0.009970
  P       1.788408     -0.190166     -1.202584
  O       1.295611      0.601431     -2.353123
  F       3.079844     -1.034754     -1.671317
  N       0.913917     -1.354937     -0.489985
  C      -0.360482     -1.525136     -0.242948
  C      -0.768186     -2.976664     -0.122729
  N      -1.307957     -0.595692     -0.041581
  C      -2.718293     -0.957681      0.203573
  C      -3.497839     -1.222597     -1.074552
  C      -1.059592      0.847457      0.061973
  C      -0.776347      1.257992      1.497643
  H       4.226665      1.614506      1.685133
  H       4.284323      3.241496      0.964290
  H       2.773428      2.658036      1.702809
  H       4.103915      1.491488     -0.822471
  H       2.658744      2.527843     -0.809418
  H       0.147399     -3.573626     -0.129322
  H      -1.342887     -3.179313      0.789439
  H      -1.381494     -3.295429     -0.976038
  H      -3.177090     -0.105694      0.721080
  H      -2.778685     -1.801998      0.899002
  H      -4.548155     -1.429191     -0.829401
  H      -3.464476     -0.344182     -1.734286
  H      -3.108894     -2.083437     -1.633293
  H      -0.240029      1.161746     -0.581203
  H      -1.946692      1.358432     -0.335609
  H       0.144813      0.777938      1.854621
  H      -1.598718      0.984177      2.171709
  H      -0.639558      2.346539      1.550722
32
Coordinates from ORCA-job opt E -1016.170835963899
  C       3.511167      2.430198      1.138393
  C       3.171714      1.801595     -0.190652
  O       2.380197      0.630821      0.053022
  P       1.825530     -0.257893     -1.156108
  O       1.389669      0.500799     -2.356944
  F       3.151418     -1.088011     -1.539572
  N       0.921702     -1.399612     -0.471658
  C      -0.354956     -1.572596     -0.240579
  C      -0.782508     -3.026381     -0.168658
  N      -1.290253     -0.645538     -0.022996
  C      -2.703270     -0.978219      0.242214
  C      -3.534528     -1.101985     -1.025404
  C      -1.020386      0.796837      0.015301
  C      -0.623504      1.254454      1.411099
  H       4.088083      1.734009      1.761581
  H       4.116190      3.333051      0.977420
  H       2.598161      2.718002      1.676993
  H       4.078074      1.504094     -0.739445
  H       2.597074      2.487501     -0.830168
  H       0.119215     -3.641194     -0.229199
  H      -1.329306     -3.266686      0.751763
  H      -1.431023     -3.285890     -1.016712
  H      -3.121422     -0.169487      0.854684
  H      -2.759215     -1.884689      0.854556
  H      -4.580600     -1.306435     -0.758992
  H      -3.506149     -0.165833     -1.601142
  H      -3.187468     -1.914547     -1.676769
  H      -0.248189      1.075498     -0.705778
  H      -1.927628      1.307169     -0.333365
  H       0.317143      0.774621      1.713036
  H      -1.395443      1.013934      2.154788
  H      -0.469490      2.342412      1.416563
32
Coordinates from ORCA-job opt E -1016.172078547367
  C       3.454199      2.503365      1.088501
  C       3.105406      1.818810     -0.212735
  O       2.357860      0.632241      0.080711
  P       1.800940     -0.288532     -1.110860
  O       1.347085      0.469978     -2.312589
  F       3.137462     -1.083837     -1.504695
  N       0.910684     -1.430167     -0.442190
  C      -0.360240     -1.627108     -0.190833
  C      -0.803883     -3.074562     -0.107889
  N      -1.287593     -0.687882      0.003908
  C      -2.708679     -0.994829      0.203973
  C      -3.500948     -0.982024     -1.096700
  C      -0.957505      0.740533      0.050239
  C      -0.540692      1.192559      1.444910
  H       4.068800      1.846559      1.722115
  H       4.021798      3.423795      0.889280
  H       2.542581      2.770721      1.643666
  H       4.016317      1.543077     -0.770091
  H       2.496591      2.474385     -0.856082
  H       0.076721     -3.714218     -0.222190
  H      -1.297286     -3.313303      0.844208
  H      -1.514261     -3.294968     -0.919976
  H      -3.118451     -0.237876      0.887510
  H      -2.801982     -1.959090      0.718702
  H      -4.561523     -1.184468     -0.885117
  H      -3.436200      0.000801     -1.588415
  H      -3.142315     -1.744190     -1.805189
  H      -0.174772      0.970966     -0.686176
  H      -1.842778      1.291724     -0.295978
  H       0.373317      0.668259      1.757585
  H      -1.331601      0.996789      2.185437
  H      -0.329050      2.272493      1.444232
32
Coordinates from ORCA-job opt E -1016.172459187400
  C       3.454318      2.493845      1.152614
  C       3.139681      1.812386     -0.158480
  O       2.372609      0.630456      0.112698
  P       1.831186     -0.282015     -1.093585
  O       1.428770      0.481941     -2.309357
  F       3.166173     -1.102946     -1.441983
  N       0.904247     -1.409560     -0.454442
  C      -0.370638     -1.625024     -0.223059
  C      -0.790857     -3.074526     -0.133948
  N      -1.309032     -0.696349     -0.012754
  C      -2.714918     -1.031551      0.232813
  C      -3.563398     -0.982303     -1.031713
  C      -1.017598      0.740192     -0.024026
  C      -0.495777      1.239730      1.317126
  H       4.044106      1.832578      1.805690
  H       4.036258      3.409090      0.969203
  H       2.528390      2.770877      1.679524
  H       4.065570      1.529960     -0.688535
  H       2.556614      2.472605     -0.821521
  H       0.092177     -3.701681     -0.293297
  H      -1.236335     -3.325722      0.838983
  H      -1.536636     -3.296012     -0.913261
  H      -3.094384     -0.307155      0.968818
  H      -2.774885     -2.015865      0.711246
  H      -4.611679     -1.207823     -0.784078
  H      -3.532938      0.018028     -1.491082
  H      -3.222427     -1.714411     -1.780147
  H      -0.320827      0.970817     -0.840443
  H      -1.951080      1.253487     -0.296130
  H       0.456265      0.748526      1.563885
  H      -1.217754      1.043967      2.125750
  H      -0.315203      2.324459      1.270765
32
Coordinates from ORCA-job opt E -1016.172766225310
  C       3.599360      2.428365      1.160491
  C       3.210035      1.809276     -0.160520
  O       2.423473      0.635585      0.100968
  P       1.813703     -0.223764     -1.111763
  O       1.375233      0.582217     -2.284578
  F       3.117039     -1.063049     -1.533535
  N       0.895097     -1.359852     -0.463701
  C      -0.373743     -1.593857     -0.216638
  C      -0.758991     -3.047440     -0.099473
  N      -1.332936     -0.677346     -0.023889
  C      -2.731949     -1.049477      0.216853
  C      -3.571254     -1.057361     -1.054497
  C      -1.077678      0.765450     -0.028849
  C      -0.634741      1.283590      1.332663
  H       4.197233      1.726472      1.761222
  H       4.199717      3.333192      0.984982
  H       2.705716      2.711327      1.737154
  H       4.102924      1.523509     -0.742162
  H       2.616477      2.507367     -0.772899
  H       0.134260     -3.655530     -0.273102
  H      -1.172091     -3.287453      0.890600
  H      -1.519264     -3.303026     -0.852878
  H      -3.132351     -0.317706      0.934224
  H      -2.774448     -2.022121      0.719434
  H      -4.615718     -1.303198     -0.811238
  H      -3.560097     -0.071001     -1.543227
  H      -3.202673     -1.802120     -1.776004
  H      -0.357520      1.011300     -0.819030
  H      -2.015389      1.249716     -0.337453
  H       0.311796      0.815792      1.636330
  H      -1.395930      1.079822      2.101936
  H      -0.475292      2.371319      1.285854
32
Coordinates from ORCA-job opt E -1016.172999173152
  C       3.528792      2.448247      1.156467
  C       3.170444      1.810698     -0.164365
  O       2.396269      0.630109      0.096590
  P       1.817494     -0.245492     -1.119780
  O       1.394611      0.547071     -2.307460
  F       3.134032     -1.079825     -1.508472
  N       0.893932     -1.377058     -0.473382
  C      -0.371983     -1.604111     -0.219419
  C      -0.768169     -3.055762     -0.107028
  N      -1.319985     -0.676707     -0.028005
  C      -2.724726     -1.026598      0.218201
  C      -3.562830     -1.034202     -1.053007
  C      -1.035776      0.760872     -0.022653
  C      -0.578319      1.256178      1.342054
  H       4.124544      1.761029      1.774700
  H       4.120271      3.358395      0.981542
  H       2.622380      2.725576      1.714530
  H       4.075612      1.530592     -0.727816
  H       2.577642      2.493030     -0.793458
  H       0.113926     -3.670866     -0.308106
  H      -1.155047     -3.296637      0.893154
  H      -1.551068     -3.300289     -0.839620
  H      -3.115943     -0.285238      0.930666
  H      -2.782021     -1.994414      0.727251
  H      -4.610430     -1.262121     -0.808894
  H      -3.536571     -0.054483     -1.553130
  H      -3.203419     -1.792345     -1.764590
  H      -0.310145      0.997060     -0.810202
  H      -1.962923      1.268754     -0.323735
  H       0.357100      0.764361      1.642252
  H      -1.343426      1.064382      2.109214
  H      -0.394271      2.339792      1.303777
32
Coordinates from ORCA-job opt E -1016.173085958909
  C       3.502568      2.449402      1.169099
  C       3.160512      1.808850     -0.154725
  O       2.394072      0.622244      0.099269
  P       1.826892     -0.251014     -1.124803
  O       1.420184      0.545098     -2.315824
  F       3.145104     -1.088424     -1.500241
  N       0.892014     -1.377285     -0.490014
  C      -0.371675     -1.605154     -0.232989
  C      -0.770578     -3.055869     -0.111363
  N      -1.317074     -0.676778     -0.039645
  C      -2.719018     -1.024116      0.223661
  C      -3.570590     -1.027879     -1.038293
  C      -1.026402      0.759646     -0.038347
  C      -0.557159      1.255051      1.322603
  H       4.098850      1.767364      1.792401
  H       4.087811      3.364487      0.999108
  H       2.589445      2.719144      1.719798
  H       4.072414      1.536378     -0.710989
  H       2.567043      2.486172     -0.788468
  H       0.100991     -3.675076     -0.342916
  H      -1.119874     -3.291922      0.904321
  H      -1.581696     -3.298703     -0.812651
  H      -3.101360     -0.286382      0.944628
  H      -2.771374     -1.994676      0.729429
  H      -4.615828     -1.255797     -0.784471
  H      -3.548769     -0.048071     -1.538433
  H      -3.217367     -1.785630     -1.753578
  H      -0.305038      0.989856     -0.832255
  H      -1.953260      1.272381     -0.331542
  H       0.373092      0.754487      1.623401
  H      -1.322880      1.075742      2.092176
  H      -0.361049      2.336475      1.278925
32
Coordinates from ORCA-job opt E -1016.173142540827
  C       3.503523      2.432002      1.194813
  C       3.168279      1.803914     -0.136659
  O       2.403368      0.612859      0.102073
  P       1.835493     -0.243090     -1.134104
  O       1.441787      0.567930     -2.318923
  F       3.148627     -1.087698     -1.512243
  N       0.888859     -1.366173     -0.513671
  C      -0.371415     -1.598372     -0.249197
  C      -0.765204     -3.050385     -0.119051
  N      -1.319824     -0.673142     -0.054819
  C      -2.715681     -1.023475      0.234883
  C      -3.586201     -1.044256     -1.013869
  C      -1.034443      0.764151     -0.066684
  C      -0.561511      1.272678      1.288484
  H       4.099270      1.745340      1.813656
  H       4.087258      3.350191      1.036120
  H       2.587663      2.694442      1.744534
  H       4.082819      1.538808     -0.692439
  H       2.575616      2.485916     -0.766289
  H       0.097189     -3.667914     -0.387230
  H      -1.066621     -3.283974      0.912967
  H      -1.606298     -3.297964     -0.781580
  H      -3.090480     -0.281436      0.955380
  H      -2.755609     -1.989315      0.751263
  H      -4.626739     -1.274636     -0.743160
  H      -3.575993     -0.070366     -1.525946
  H      -3.238450     -1.808379     -1.725269
  H      -0.316994      0.989525     -0.865479
  H      -1.964591      1.271850     -0.358545
  H       0.366459      0.772172      1.596264
  H      -1.328655      1.105815      2.059643
  H      -0.361500      2.352983      1.232351
32
Coordinates from ORCA-job opt E -1016.173170514648
  C       3.510290      2.413185      1.215058
  C       3.180058      1.798026     -0.123614
  O       2.410946      0.606288      0.100491
  P       1.839596     -0.232190     -1.146048
  O       1.453473      0.593483     -2.322969
  F       3.147819     -1.080791     -1.532659
  N       0.885919     -1.355471     -0.537919
  C      -0.371401     -1.591194     -0.265053
  C      -0.758136     -3.044025     -0.120647
  N      -1.322804     -0.669383     -0.067408
  C      -2.712995     -1.024020      0.242272
  C      -3.598186     -1.061056     -0.996020
  C      -1.043955      0.768913     -0.087694
  C      -0.575145      1.288809      1.265018
  H       4.101628      1.719511      1.830508
  H       4.096876      3.331520      1.067665
  H       2.592290      2.672938      1.762627
  H       4.096697      1.535600     -0.677448
  H       2.592185      2.487194     -0.750119
  H       0.098586     -3.659779     -0.411005
  H      -1.023308     -3.270858      0.923114
  H      -1.619060     -3.301454     -0.752700
  H      -3.083630     -0.276433      0.959088
  H      -2.741530     -1.984431      0.769952
  H      -4.634560     -1.294368     -0.711808
  H      -3.598405     -0.091762     -1.517022
  H      -3.254612     -1.829575     -1.704838
  H      -0.324725      0.992342     -0.885318
  H      -1.975717      1.270953     -0.384717
  H       0.352786      0.791901      1.579233
  H      -1.343846      1.126970      2.035919
  H      -0.377136      2.369155      1.201336
32
Coordinates from ORCA-job opt E -1016.173185260508
  C       3.513952      2.401400      1.226959
  C       3.187290      1.793691     -0.115953
  O       2.414108      0.602724      0.099373
  P       1.840023     -0.225582     -1.152443
  O       1.455795      0.608628     -2.324048
  F       3.145962     -1.074356     -1.546642
  N       0.884807     -1.351021     -0.550977
  C      -0.370703     -1.587817     -0.270677
  C      -0.753853     -3.041258     -0.123276
  N      -1.323542     -0.667955     -0.069969
  C      -2.711093     -1.024810      0.248599
  C      -3.603099     -1.071151     -0.984642
  C      -1.050265      0.771064     -0.099075
  C      -0.583240      1.301470      1.250278
  H       4.101277      1.703143      1.841141
  H       4.103343      3.319044      1.086546
  H       2.594426      2.660767      1.772210
  H       4.105415      1.531366     -0.667413
  H       2.603762      2.487551     -0.741374
  H       0.101648     -3.655363     -0.420962
  H      -1.006758     -3.267634      0.923683
  H      -1.620792     -3.302257     -0.745414
  H      -3.080512     -0.272545      0.961091
  H      -2.733890     -1.981108      0.783915
  H      -4.637291     -1.305695     -0.693478
  H      -3.608607     -0.103937     -1.509567
  H      -3.262317     -1.841687     -1.692585
  H      -0.330090      0.992592     -0.896267
  H      -1.983378      1.267617     -0.401272
  H       0.348014      0.810890      1.564825
  H      -1.349006      1.139700      2.024176
  H      -0.391386      2.382530      1.180511
32
Coordinates from ORCA-job opt E -1016.173197981955
  C       3.512188      2.388232      1.239297
  C       3.192902      1.787977     -0.108734
  O       2.413615      0.598962      0.095655
  P       1.839151     -0.218476     -1.162758
  O       1.457218      0.625238     -2.328625
  F       3.144108     -1.065392     -1.564035
  N       0.883334     -1.348265     -0.570266
  C      -0.369827     -1.584696     -0.278980
  C      -0.749494     -3.038058     -0.124589
  N      -1.322383     -0.665583     -0.072272
  C      -2.707348     -1.024421      0.255453
  C      -3.606419     -1.081359     -0.972283
  C      -1.053727      0.773810     -0.109672
  C      -0.589423      1.313944      1.236717
  H       4.092245      1.684739      1.854391
  H       4.106132      3.304206      1.107683
  H       2.589682      2.648657      1.778970
  H       4.113991      1.524275     -0.654451
  H       2.616684      2.487003     -0.735089
  H       0.105966     -3.651710     -0.423340
  H      -0.995866     -3.261240      0.924609
  H      -1.619246     -3.303720     -0.740707
  H      -3.075480     -0.266030      0.962086
  H      -2.724455     -1.975571      0.799936
  H      -4.638170     -1.316630     -0.673259
  H      -3.617489     -0.116425     -1.501315
  H      -3.269405     -1.854354     -1.679248
  H      -0.330990      0.993034     -0.905097
  H      -1.987260      1.265343     -0.418912
  H       0.346396      0.830882      1.549609
  H      -1.350870      1.149595      2.014294
  H      -0.405762      2.396034      1.162206
32
Coordinates from ORCA-job opt E -1016.173208253729
  C       3.506877      2.379416      1.248402
  C       3.193984      1.783839     -0.103228
  O       2.412261      0.595213      0.093336
  P       1.839127     -0.215174     -1.170081
  O       1.459976      0.635205     -2.332297
  F       3.143996     -1.060790     -1.574191
  N       0.882353     -1.347913     -0.585004
  C      -0.368552     -1.583605     -0.283707
  C      -0.747097     -3.036763     -0.126339
  N      -1.319949     -0.664385     -0.072112
  C      -2.703316     -1.024286      0.261774
  C      -3.607267     -1.085871     -0.962070
  C      -1.054243      0.775133     -0.117653
  C      -0.590773      1.323843      1.225447
  H       4.082538      1.673091      1.864322
  H       4.102834      3.294924      1.122983
  H       2.581873      2.639418      1.783939
  H       4.117590      1.520464     -0.644723
  H       2.621923      2.485526     -0.730321
  H       0.107069     -3.650860     -0.427652
  H      -0.989488     -3.259595      0.923814
  H      -1.619503     -3.302357     -0.738808
  H      -3.069731     -0.263530      0.966772
  H      -2.716979     -1.973359      0.809875
  H      -4.637304     -1.321830     -0.657815
  H      -3.622178     -0.121845     -1.492640
  H      -3.272821     -1.859793     -1.669187
  H      -0.331241      0.990974     -0.913852
  H      -1.988496      1.262772     -0.430941
  H       0.348218      0.846612      1.537716
  H      -1.349175      1.159098      2.005840
  H      -0.412505      2.406428      1.145675
32
Coordinates from ORCA-job opt E -1016.173220781447
  C       3.495852      2.366456      1.262303
  C       3.192929      1.778193     -0.094833
  O       2.409270      0.589002      0.089509
  P       1.840455     -0.211418     -1.182129
  O       1.467418      0.648356     -2.339581
  F       3.145606     -1.056015     -1.587252
  N       0.880861     -1.348012     -0.609063
  C      -0.366628     -1.582003     -0.293418
  C      -0.743813     -3.034703     -0.129262
  N      -1.315662     -0.661913     -0.074418
  C      -2.696287     -1.022208      0.271308
  C      -3.608971     -1.091810     -0.945468
  C      -1.052892      0.777630     -0.130318
  C      -0.590201      1.336761      1.208600
  H       4.065886      1.656258      1.878937
  H       4.093754      3.281927      1.146332
  H       2.567024      2.624636      1.791997
  H       4.120405      1.516845     -0.630567
  H       2.625929      2.483371     -0.722513
  H       0.109005     -3.649938     -0.431781
  H      -0.983184     -3.254766      0.922105
  H      -1.618474     -3.301316     -0.738143
  H      -3.058643     -0.258075      0.974770
  H      -2.704677     -1.968187      0.824816
  H      -4.636153     -1.328035     -0.631971
  H      -3.629999     -0.130447     -1.480596
  H      -3.278751     -1.868804     -1.651156
  H      -0.330346      0.988597     -0.928278
  H      -1.988110      1.260957     -0.447544
  H       0.351836      0.866120      1.521604
  H      -1.346138      1.172857      1.991455
  H      -0.417298      2.419684      1.121832
32
Coordinates from ORCA-job opt E -1016.173228398784
  C       3.489205      2.352842      1.276753
  C       3.192236      1.773448     -0.085537
  O       2.408355      0.582678      0.087343
  P       1.842564     -0.207237     -1.192305
  O       1.475625      0.662214     -2.344432
  F       3.147098     -1.051904     -1.599083
  N       0.879402     -1.346781     -0.631101
  C      -0.364524     -1.580085     -0.302194
  C      -0.739878     -3.032665     -0.131833
  N      -1.312405     -0.660123     -0.077713
  C      -2.689757     -1.021070      0.280570
  C      -3.611901     -1.097464     -0.928605
  C      -1.053549      0.779601     -0.144753
  C      -0.591829      1.350428      1.189509
  H       4.056076      1.638339      1.891331
  H       4.088122      3.268714      1.169384
  H       2.558173      2.608109      1.803942
  H       4.122082      1.515870     -0.619005
  H       2.627664      2.482516     -0.711025
  H       0.111471     -3.648387     -0.437316
  H      -0.974917     -3.250342      0.920938
  H      -1.617380     -3.300448     -0.736279
  H      -3.047501     -0.255288      0.984581
  H      -2.692391     -1.965161      0.837478
  H      -4.636060     -1.334347     -0.605784
  H      -3.639423     -0.138811     -1.468282
  H      -3.285482     -1.877313     -1.632928
  H      -0.332623      0.985705     -0.945506
  H      -1.990452      1.258016     -0.464665
  H       0.351829      0.885589      1.506153
  H      -1.347375      1.190121      1.973462
  H      -0.422456      2.433238      1.094175
32
Coordinates from ORCA-job opt E -1016.173230163972
  C       3.486927      2.341300      1.288406
  C       3.191100      1.770842     -0.077878
  O       2.407937      0.578245      0.086340
  P       1.844377     -0.203462     -1.199441
  O       1.481724      0.673105     -2.347308
  F       3.148381     -1.048153     -1.607805
  N       0.878624     -1.345327     -0.646918
  C      -0.362805     -1.578400     -0.309244
  C      -0.736128     -3.031002     -0.133021
  N      -1.310642     -0.658986     -0.081937
  C      -2.685079     -1.020095      0.286954
  C      -3.615333     -1.102150     -0.915661
  C      -1.055006      0.780945     -0.157081
  C      -0.594115      1.360698      1.173669
  H       4.053039      1.622592      1.898803
  H       4.086307      3.257622      1.187462
  H       2.555561      2.593572      1.816454
  H       4.121483      1.517472     -0.612490
  H       2.626562      2.483684     -0.699137
  H       0.115065     -3.646561     -0.439302
  H      -0.968801     -3.245695      0.920829
  H      -1.614675     -3.301521     -0.734831
  H      -3.038818     -0.252903      0.991427
  H      -2.683075     -1.962603      0.846629
  H      -4.637051     -1.338899     -0.585049
  H      -3.647683     -0.146159     -1.459791
  H      -3.292323     -1.884913     -1.618342
  H      -0.335403      0.983928     -0.959780
  H      -1.993332      1.255710     -0.478448
  H       0.349809      0.899327      1.494550
  H      -1.350461      1.204649      1.957742
  H      -0.426164      2.443139      1.071471
32
Coordinates from ORCA-job opt E -1016.173232299857
  C       3.488584      2.333559      1.295457
  C       3.190005      1.770276     -0.073168
  O       2.407768      0.576322      0.086391
  P       1.845150     -0.200736     -1.202667
  O       1.484317      0.679583     -2.348072
  F       3.148898     -1.045068     -1.612529
  N       0.878446     -1.344119     -0.654486
  C      -0.361682     -1.577348     -0.312475
  C      -0.733467     -3.030030     -0.132689
  N      -1.310196     -0.658694     -0.084682
  C      -2.682854     -1.020107      0.289961
  C      -3.617722     -1.105104     -0.908928
  C      -1.056976      0.781394     -0.164869
  C      -0.596635      1.367134      1.163548
  H       4.055638      1.611465      1.900992
  H       4.088126      3.250175      1.198084
  H       2.558365      2.583499      1.826657
  H       4.119411      1.520294     -0.611108
  H       2.623921      2.486146     -0.689556
  H       0.117674     -3.645195     -0.439982
  H      -0.963736     -3.242966      0.922008
  H      -1.612945     -3.302643     -0.732253
  H      -3.034505     -0.252261      0.994757
  H      -2.678167     -1.961861      0.850916
  H      -4.638116     -1.341523     -0.574015
  H      -3.652445     -0.150584     -1.455505
  H      -3.296801     -1.889493     -1.610770
  H      -0.338082      0.982810     -0.968580
  H      -1.996306      1.253645     -0.487089
  H       0.347224      0.907744      1.487457
  H      -1.353550      1.214444      1.947779
  H      -0.429341      2.449239      1.056690
32
Coordinates from ORCA-job opt E -1016.173233238810
  C       3.492710      2.324706      1.302599
  C       3.188697      1.770363     -0.068441
  O       2.406844      0.575469      0.086597
  P       1.845370     -0.197338     -1.205504
  O       1.485952      0.686212     -2.348744
  F       3.149178     -1.040808     -1.616851
  N       0.878338     -1.342555     -0.661080
  C      -0.360671     -1.575983     -0.315374
  C      -0.730524     -3.028749     -0.131602
  N      -1.310161     -0.658225     -0.087647
  C      -2.681034     -1.020313      0.292369
  C      -3.620139     -1.109098     -0.902989
  C      -1.059774      0.782032     -0.172829
  C      -0.600330      1.373927      1.153266
  H       4.061007      1.598070      1.901507
  H       4.093037      3.241197      1.208893
  H       2.564723      2.572464      1.838729
  H       4.116055      1.523750     -0.611463
  H       2.620568      2.490288     -0.678213
  H       0.120773     -3.643414     -0.439551
  H      -0.958164     -3.239656      0.924053
  H      -1.610844     -3.303991     -0.728740
  H      -3.031202     -0.251396      0.996739
  H      -2.673487     -1.960917      0.855203
  H      -4.639240     -1.345072     -0.563885
  H      -3.657144     -0.156233     -1.452307
  H      -3.301201     -1.895326     -1.603686
  H      -0.341240      0.982251     -0.977132
  H      -2.000122      1.251441     -0.496283
  H       0.343796      0.916980      1.479858
  H      -1.357376      1.224148      1.937972
  H      -0.434396      2.455776      1.041810
32
Coordinates from ORCA-job opt E -1016.173236400721
  C       3.503456      2.306378      1.316310
  C       3.186976      1.770639     -0.059256
  O       2.404177      0.575166      0.087104
  P       1.845101     -0.189784     -1.210636
  O       1.488312      0.699785     -2.349915
  F       3.149264     -1.031283     -1.624697
  N       0.877796     -1.338590     -0.673200
  C      -0.359023     -1.572757     -0.320516
  C      -0.724608     -3.025746     -0.129217
  N      -1.310542     -0.656922     -0.092899
  C      -2.677959     -1.021142      0.296857
  C      -3.624407     -1.118372     -0.892112
  C      -1.066454      0.783666     -0.188149
  C      -0.609571      1.388050      1.133328
  H       4.073330      1.569787      1.901404
  H       4.106668      3.221688      1.229813
  H       2.580635      2.550852      1.862808
  H       4.109522      1.529494     -0.612836
  H       2.615571      2.499508     -0.655221
  H       0.126752     -3.639377     -0.439141
  H      -0.946047     -3.233052      0.928450
  H      -1.607161     -3.305881     -0.720758
  H      -3.026237     -0.249920      0.999647
  H      -2.664449     -1.959118      0.863907
  H      -4.640961     -1.354031     -0.545290
  H      -3.666284     -0.168782     -1.446738
  H      -3.308541     -1.908033     -1.590347
  H      -0.348309      0.981619     -0.993326
  H      -2.008860      1.246744     -0.514818
  H       0.335979      0.937282      1.464394
  H      -1.366160      1.242532      1.919329
  H      -0.447966      2.469600      1.012996
32
Coordinates from ORCA-job opt E -1016.173197724031
  C       3.584346      2.171506      1.405516
  C       3.184842      1.767531      0.006973
  O       2.386389      0.575896      0.091481
  P       1.843915     -0.131944     -1.244703
  O       1.509451      0.800529     -2.355506
  F       3.148941     -0.963020     -1.675699
  N       0.871135     -1.301686     -0.757912
  C      -0.348721     -1.544004     -0.356940
  C      -0.679586     -2.998501     -0.115210
  N      -1.315903     -0.644189     -0.127896
  C      -2.656593     -1.026098      0.329215
  C      -3.650737     -1.188175     -0.813270
  C      -1.121798      0.796916     -0.292961
  C      -0.689363      1.488313      0.994413
  H       4.154692      1.368051      1.894215
  H       4.214286      3.072061      1.368673
  H       2.698324      2.394983      2.018172
  H       4.073358      1.561899     -0.612708
  H       2.600863      2.556513     -0.492712
  H       0.172874     -3.603101     -0.439965
  H      -0.856633     -3.181437      0.955164
  H      -1.576513     -3.313398     -0.666213
  H      -2.995561     -0.238710      1.018510
  H      -2.597679     -1.943071      0.926682
  H      -4.647373     -1.424495     -0.413456
  H      -3.731676     -0.263640     -1.404745
  H      -3.351417     -2.001145     -1.491803
  H      -0.405867      0.981522     -1.103008
  H      -2.079037      1.210493     -0.642908
  H       0.268599      1.088246      1.354036
  H      -1.442295      1.365751      1.788063
  H      -0.565264      2.566402      0.813775
32
Coordinates from ORCA-job opt E -1016.173241470075
  C       3.519263      2.268935      1.344281
  C       3.184012      1.768939     -0.040231
  O       2.394130      0.575828      0.086712
  P       1.844737     -0.174085     -1.223766
  O       1.496455      0.727558     -2.356068
  F       3.151472     -1.010766     -1.639068
  N       0.875900     -1.330203     -0.703504
  C      -0.355436     -1.565906     -0.333768
  C      -0.712293     -3.019253     -0.127759
  N      -1.309860     -0.653537     -0.103234
  C      -2.669531     -1.021956      0.308462
  C      -3.632255     -1.137431     -0.865832
  C      -1.078444      0.787370     -0.219289
  C      -0.628321      1.417233      1.092752
  H       4.085575      1.511926      1.906322
  H       4.132287      3.179084      1.273699
  H       2.604563      2.511096      1.905346
  H       4.099092      1.534713     -0.608953
  H       2.612182      2.516148     -0.612696
  H       0.137759     -3.631207     -0.444646
  H      -0.917993     -3.220012      0.934321
  H      -1.601368     -3.307931     -0.705221
  H      -3.013236     -0.245557      1.007765
  H      -2.642631     -1.953892      0.884837
  H      -4.642861     -1.372333     -0.501609
  H      -3.685408     -0.194900     -1.431415
  H      -3.323525     -1.934384     -1.558952
  H      -0.359990      0.979972     -1.025443
  H      -2.024445      1.237387     -0.554047
  H       0.320407      0.979838      1.432667
  H      -1.384084      1.279320      1.880973
  H      -0.476151      2.498006      0.954643
32
Coordinates from ORCA-job opt E -1016.173238880402
  C       3.531930      2.257903      1.350752
  C       3.185737      1.769684     -0.035267
  O       2.392128      0.578752      0.088315
  P       1.842736     -0.167715     -1.224072
  O       1.493502      0.736616     -2.353944
  F       3.149863     -1.002346     -1.642354
  N       0.875289     -1.325988     -0.705828
  C      -0.355375     -1.563286     -0.334728
  C      -0.709197     -3.016928     -0.125869
  N      -1.311576     -0.652581     -0.105364
  C      -2.669519     -1.023431      0.309823
  C      -3.634311     -1.145368     -0.862111
  C      -1.084721      0.788555     -0.227119
  C      -0.636826      1.425753      1.082147
  H       4.098044      1.493929      1.903478
  H       4.148762      3.165699      1.283159
  H       2.621906      2.500097      1.919382
  H       4.096308      1.536144     -0.611438
  H       2.613329      2.523445     -0.598503
  H       0.141309     -3.627840     -0.443496
  H      -0.911982     -3.216369      0.937053
  H      -1.599057     -3.308195     -0.700775
  H      -3.014060     -0.245674      1.007203
  H      -2.638922     -1.953409      0.889167
  H      -4.643618     -1.381074     -0.494852
  H      -3.690668     -0.204945     -1.430867
  H      -3.325392     -1.944102     -1.553086
  H      -0.366629      0.980222     -1.033770
  H      -2.032116      1.234025     -0.564067
  H       0.313604      0.993336      1.423706
  H      -1.391711      1.288623      1.871326
  H      -0.488768      2.506469      0.939269
32
Coordinates from ORCA-job opt E -1016.173242534649
  C       3.598544      2.188473      1.390509
  C       3.201495      1.768374     -0.004207
  O       2.380286      0.594294      0.094884
  P       1.833449     -0.128047     -1.231711
  O       1.485080      0.795204     -2.346556
  F       3.142110     -0.953214     -1.664444
  N       0.869800     -1.297167     -0.730541
  C      -0.354827     -1.544722     -0.346161
  C      -0.688045     -3.000261     -0.118595
  N      -1.321057     -0.644352     -0.118700
  C      -2.666740     -1.030447      0.322228
  C      -3.646325     -1.194407     -0.832062
  C      -1.123308      0.797456     -0.275213
  C      -0.691506      1.478948      1.017074
  H       4.153755      1.384428      1.895307
  H       4.241450      3.079325      1.343753
  H       2.711567      2.433981      1.993287
  H       4.090014      1.535124     -0.613865
  H       2.635537      2.560148     -0.519902
  H       0.163902     -3.604508     -0.444825
  H      -0.867651     -3.191019      0.950232
  H      -1.585180     -3.307984     -0.672957
  H      -3.015395     -0.243889      1.007553
  H      -2.611240     -1.946884      0.921045
  H      -4.646132     -1.436456     -0.443653
  H      -3.725670     -0.267894     -1.420503
  H      -3.336166     -2.003895     -1.509807
  H      -0.406580      0.983243     -1.084346
  H      -2.078997      1.213892     -0.626188
  H       0.269310      1.078534      1.368724
  H      -1.441749      1.344937      1.811113
  H      -0.569733      2.558783      0.845799
32
Coordinates from ORCA-job opt E -1016.173258222791
  C       3.558476      2.232134      1.366159
  C       3.194885      1.767811     -0.023689
  O       2.386002      0.586551      0.090714
  P       1.838529     -0.151527     -1.227123
  O       1.490054      0.759938     -2.351633
  F       3.146858     -0.982222     -1.649954
  N       0.872385     -1.313528     -0.715630
  C      -0.355885     -1.555691     -0.339664
  C      -0.701403     -3.010342     -0.124935
  N      -1.315640     -0.649011     -0.109659
  C      -2.668877     -1.026659      0.315326
  C      -3.639043     -1.166100     -0.850082
  C      -1.100374      0.792606     -0.245044
  C      -0.659396      1.447125      1.057930
  H       4.117018      1.452046      1.903846
  H       4.187931      3.131777      1.306499
  H       2.656224      2.479540      1.944901
  H       4.097868      1.529372     -0.609673
  H       2.628983      2.537319     -0.572067
  H       0.149118     -3.618516     -0.447596
  H      -0.893663     -3.207492      0.940458
  H      -1.595183     -3.307102     -0.690714
  H      -3.015606     -0.245311      1.007554
  H      -2.627971     -1.951040      0.903011
  H      -4.644476     -1.405500     -0.474680
  H      -3.705459     -0.230987     -1.426420
  H      -3.328759     -1.968718     -1.535895
  H      -0.382615      0.981566     -1.052628
  H      -2.051013      1.226420     -0.588334
  H       0.295952      1.028272      1.402774
  H      -1.412095      1.309373      1.849008
  H      -0.522826      2.527895      0.904511
32
Coordinates from ORCA-job opt E -1016.173261854688
  C       3.564300      2.223678      1.371439
  C       3.196100      1.767085     -0.019795
  O       2.382487      0.588845      0.091034
  P       1.837616     -0.146934     -1.229195
  O       1.490728      0.766712     -2.352460
  F       3.147039     -0.976142     -1.651665
  N       0.871353     -1.310047     -0.720962
  C      -0.355727     -1.553579     -0.342162
  C      -0.698790     -3.008472     -0.125078
  N      -1.316177     -0.647877     -0.111223
  C      -2.667766     -1.027062      0.317766
  C      -3.640370     -1.171815     -0.844936
  C      -1.104018      0.793769     -0.251182
  C      -0.665377      1.453791      1.049764
  H       4.120296      1.438618      1.904519
  H       4.197504      3.120877      1.314722
  H       2.664150      2.472326      1.952944
  H       4.097014      1.527460     -0.608482
  H       2.632468      2.541558     -0.563558
  H       0.151449     -3.616038     -0.449606
  H      -0.887512     -3.204611      0.941146
  H      -1.594046     -3.306822     -0.687656
  H      -3.014479     -0.244489      1.008589
  H      -2.623601     -1.949642      0.908076
  H      -4.644408     -1.412055     -0.466323
  H      -3.710093     -0.238520     -1.423808
  H      -3.330246     -1.975876     -1.529121
  H      -0.386008      0.981304     -1.058867
  H      -2.055372      1.224297     -0.596764
  H       0.291129      1.038874      1.396213
  H      -1.417888      1.316363      1.841060
  H      -0.531757      2.534423      0.892844
32
Coordinates from ORCA-job opt E -1016.173260902250
  C       3.572518      2.207106      1.382259
  C       3.197886      1.764715     -0.011917
  O       2.374813      0.592604      0.091160
  P       1.836961     -0.138806     -1.234488
  O       1.495573      0.779230     -2.355909
  F       3.148863     -0.965758     -1.653950
  N       0.868919     -1.303257     -0.734338
  C      -0.355192     -1.549494     -0.348300
  C      -0.693634     -3.004833     -0.127084
  N      -1.316371     -0.645476     -0.113875
  C      -2.664448     -1.027351      0.324004
  C      -3.642680     -1.182305     -0.832590
  C      -1.110269      0.796101     -0.263523
  C      -0.676732      1.467439      1.033233
  H       4.123184      1.413179      1.907686
  H       4.212442      3.099884      1.331719
  H       2.675357      2.457828      1.967522
  H       4.095705      1.522547     -0.604274
  H       2.639598      2.548445     -0.547983
  H       0.155512     -3.611309     -0.456396
  H      -0.874679     -3.199411      0.940767
  H      -1.592355     -3.305656     -0.682725
  H      -3.010405     -0.242304      1.012342
  H      -2.613622     -1.946314      0.919482
  H      -4.643616     -1.424368     -0.446952
  H      -3.719511     -0.252526     -1.416157
  H      -3.333326     -1.989058     -1.513927
  H      -0.391510      0.980223     -1.071333
  H      -2.062859      1.219999     -0.614119
  H       0.281976      1.060560      1.383168
  H      -1.429190      1.330676      1.824647
  H      -0.548909      2.547694      0.869127
32
Coordinates from ORCA-job opt E -1016.173265656012
  C       3.568198      2.211760      1.379455
  C       3.196017      1.765224     -0.014050
  O       2.374953      0.591834      0.090825
  P       1.837598     -0.141736     -1.233882
  O       1.496423      0.774634     -2.356711
  F       3.149739     -0.969203     -1.651568
  N       0.869194     -1.305345     -0.732712
  C      -0.355307     -1.550938     -0.347555
  C      -0.695224     -3.006103     -0.127528
  N      -1.315648     -0.646063     -0.112871
  C      -2.664672     -1.026759      0.323085
  C      -3.641770     -1.178908     -0.834850
  C      -1.107294      0.795461     -0.260172
  C      -0.672714      1.463757      1.037799
  H       4.120335      1.420525      1.907401
  H       4.205968      3.105991      1.327378
  H       2.669820      2.461688      1.963186
  H       4.094924      1.523350     -0.604883
  H       2.636799      2.546572     -0.552622
  H       0.153871     -3.613078     -0.456066
  H      -0.878093     -3.201170      0.939911
  H      -1.593366     -3.305828     -0.684719
  H      -3.010358     -0.242170      1.012088
  H      -2.615708     -1.946572      0.917408
  H      -4.643412     -1.420528     -0.450757
  H      -3.716961     -0.248198     -1.417145
  H      -3.332458     -1.984984     -1.517008
  H      -0.388319      0.979812     -1.067744
  H      -2.059213      1.221498     -0.609973
  H       0.285289      1.054647      1.387068
  H      -1.425558      1.326736      1.828806
  H      -0.543053      2.544095      0.875680
