28
Coordinates from ORCA-job opt E -901.745031395849
  C          -2.92356543427284     -1.37366214312098      0.74961549260757
  C          -2.17264402894660     -0.82533317085422     -0.45659379414786
  N          -0.98393824566529     -0.05345514555215     -0.09331256446770
  C          -1.19194078696994      1.36977346910084      0.17279079807727
  C          -1.03652614294360      2.23111932077886     -1.07337569356488
  C           0.25009061862885     -0.57497254071065     -0.03463654985289
  C           0.41857509964708     -2.04880329957670     -0.31349675673002
  N           1.25671493285124      0.22517806953378      0.22805450959020
  P           2.82327927044098     -0.20171899185045      0.39079461228121
  C           3.70906395424897      1.31662754042011      0.71757918148675
  O           3.20146950009240     -1.34699453242620      1.27408122922018
  F           3.31112312165664     -0.52436306993668     -1.12378550755881
  H          -3.82852463371627     -1.90544638273242      0.42140695695840
  H          -3.23176061350501     -0.56315453240297      1.42717370853900
  H          -2.30003462490958     -2.07682156122627      1.32225135564366
  H          -2.82410932962685     -0.15519648554667     -1.03767488471424
  H          -1.88988926236321     -1.63284702350741     -1.14374634591633
  H          -2.20182636551106      1.47869815366786      0.59550473998116
  H          -0.47516456447841      1.67964579224000      0.94370926985715
  H          -1.23553840115320      3.28585629828529     -0.83251270938800
  H          -0.01449917659294      2.15553704233419     -1.47220796120824
  H          -1.74167552138604      1.92496120269884     -1.86142161040799
  H           0.44591495112682     -2.21278920384668     -1.40215819419965
  H          -0.39720568391966     -2.65071860972467      0.10380797164641
  H           1.36379201464526     -2.39579345148363      0.11827667139450
  H           4.78800880672320      1.11087224004622      0.72623186068379
  H           3.40498888891537      1.69671748443273      1.70276329977207
  H           3.47582164698369      2.06708351096002     -0.04911908558272
