28
Coordinates from ORCA-job opt E -901.733147314766
  C      -2.890002     -1.387791      0.731804
  C      -2.198676     -0.804506     -0.491205
  N      -1.017176     -0.034631     -0.099902
  C      -1.256237      1.382209      0.202939
  C      -0.991698      2.244241     -1.022051
  C       0.269284     -0.567446     -0.022324
  C       0.481498     -2.034814     -0.361035
  N       1.267087      0.196804      0.301120
  P       2.807322     -0.219888      0.415989
  C       3.702443      1.312407      0.652938
  O       3.163668     -1.232170      1.468800
  F       3.153343     -0.819919     -0.998973
  H      -3.765144     -1.971337      0.429500
  H      -3.228073     -0.597110      1.409585
  H      -2.221242     -2.043952      1.297117
  H      -2.905425     -0.161203     -1.029819
  H      -1.938302     -1.603164     -1.193523
  H      -2.292101      1.533642      0.529841
  H      -0.629434      1.712510      1.039563
  H      -1.187398      3.296588     -0.793967
  H       0.046961      2.157069     -1.356444
  H      -1.636473      1.950817     -1.856987
  H       0.402045     -2.161050     -1.444763
  H      -0.273953     -2.652883      0.129249
  H       1.454693     -2.406653     -0.042688
  H       4.779304      1.123791      0.651846
  H       3.429194      1.772890      1.606202
  H       3.474491      2.015550     -0.152813
28
Coordinates from ORCA-job opt E -901.742281009144
  C      -2.899193     -1.391127      0.756656
  C      -2.174097     -0.829311     -0.463312
  N      -0.989866     -0.057427     -0.100904
  C      -1.186148      1.360601      0.182662
  C      -0.939477      2.231751     -1.044602
  C       0.246977     -0.587775     -0.035257
  C       0.390655     -2.054852     -0.372191
  N       1.241594      0.186656      0.295296
  P       2.811021     -0.191362      0.409368
  C       3.662802      1.356884      0.681861
  O       3.218963     -1.247116      1.395102
  F       3.221965     -0.664429     -1.053095
  H      -3.786246     -1.963956      0.447086
  H      -3.233001     -0.583118      1.425105
  H      -2.246256     -2.058802      1.338421
  H      -2.854909     -0.174882     -1.027278
  H      -1.902483     -1.639856     -1.153571
  H      -2.215116      1.508791      0.541135
  H      -0.525461      1.666292      1.006026
  H      -1.115736      3.291407     -0.805570
  H       0.095749      2.129585     -1.401093
  H      -1.612420      1.951322     -1.869421
  H       0.316228     -2.186056     -1.462515
  H      -0.400963     -2.646255      0.107519
  H       1.351030     -2.452274     -0.032731
  H       4.750036      1.197024      0.669436
  H       3.372558      1.758403      1.660971
  H       3.401793      2.089884     -0.095102
28
Coordinates from ORCA-job opt E -901.744322854218
  C      -2.933449     -1.383724      0.746445
  C      -2.178942     -0.833096     -0.460453
  N      -0.989858     -0.067401     -0.097322
  C      -1.185693      1.350799      0.177812
  C      -0.941358      2.230648     -1.043164
  C       0.239332     -0.590533     -0.024542
  C       0.402035     -2.057595     -0.336971
  N       1.234703      0.196727      0.291157
  P       2.813471     -0.188345      0.401047
  C       3.672605      1.354111      0.675396
  O       3.239419     -1.280352      1.333859
  F       3.247204     -0.577631     -1.095254
  H      -3.829122     -1.934394      0.420773
  H      -3.258197     -0.570144      1.414285
  H      -2.302778     -2.070538      1.332994
  H      -2.833508     -0.161370     -1.036953
  H      -1.903557     -1.641457     -1.148989
  H      -2.217842      1.478961      0.538398
  H      -0.520221      1.643508      1.000636
  H      -1.125489      3.287997     -0.797704
  H       0.097950      2.135150     -1.392455
  H      -1.611482      1.951419     -1.872250
  H       0.329807     -2.215581     -1.424897
  H      -0.372461     -2.661941      0.152325
  H       1.379376     -2.412826      0.011567
  H       4.759029      1.186188      0.650696
  H       3.388019      1.730015      1.668061
  H       3.401006      2.101406     -0.084498
28
Coordinates from ORCA-job opt E -901.744835943574
  C      -2.936259     -1.375077      0.748768
  C      -2.175631     -0.838848     -0.457545
  N      -0.991644     -0.061176     -0.097321
  C      -1.202885      1.361053      0.166889
  C      -0.974326      2.233666     -1.060123
  C       0.241220     -0.580472     -0.020573
  C       0.410590     -2.052156     -0.308544
  N       1.242157      0.212317      0.278676
  P       2.820733     -0.193448      0.378675
  C       3.695590      1.331168      0.700114
  O       3.242587     -1.338368      1.243632
  F       3.262481     -0.492258     -1.147818
  H      -3.831729     -1.922775      0.420681
  H      -3.260401     -0.555650      1.408565
  H      -2.311540     -2.061230      1.341252
  H      -2.822685     -0.174222     -1.050159
  H      -1.886508     -1.654043     -1.133049
  H      -2.235092      1.472368      0.531588
  H      -0.532272      1.661726      0.982104
  H      -1.175346      3.288432     -0.820719
  H       0.066410      2.151157     -1.406131
  H      -1.640789      1.939150     -1.885974
  H       0.359117     -2.230050     -1.393918
  H      -0.369740     -2.655001      0.173502
  H       1.384263     -2.390096      0.064264
  H       4.778210      1.147715      0.666047
  H       3.417501      1.671029      1.708000
  H       3.425991      2.105089     -0.030883
28
Coordinates from ORCA-job opt E -901.744940271048
  C      -2.936418     -1.373485      0.742788
  C      -2.175280     -0.836976     -0.462036
  N      -0.990379     -0.060460     -0.096971
  C      -1.201990      1.362063      0.172369
  C      -0.983051      2.234237     -1.056011
  C       0.243083     -0.581007     -0.020518
  C       0.414209     -2.054659     -0.303145
  N       1.243275      0.216837      0.270431
  P       2.819765     -0.193884      0.382884
  C       3.697863      1.331205      0.696477
  O       3.235121     -1.338566      1.250072
  F       3.266162     -0.499144     -1.145218
  H      -3.834228     -1.915580      0.412289
  H      -3.256623     -0.555756      1.405950
  H      -2.314510     -2.064851      1.331341
  H      -2.820773     -0.171744     -1.055496
  H      -1.885308     -1.651499     -1.137613
  H      -2.230967      1.471555      0.545348
  H      -0.523345      1.661536      0.981625
  H      -1.186092      3.287901     -0.814394
  H       0.055919      2.154964     -1.407010
  H      -1.653165      1.938696     -1.877954
  H       0.374432     -2.234315     -1.388536
  H      -0.371651     -2.656619      0.170119
  H       1.383357     -2.391536      0.079817
  H       4.779171      1.141006      0.668104
  H       3.419108      1.683808      1.699667
  H       3.432315      2.096274     -0.044377
28
Coordinates from ORCA-job opt E -901.744989628270
  C      -2.931707     -1.370361      0.743903
  C      -2.172421     -0.834767     -0.462296
  N      -0.987112     -0.057987     -0.096603
  C      -1.200039      1.364409      0.175142
  C      -1.004066      2.233536     -1.059315
  C       0.247451     -0.578374     -0.026250
  C       0.418029     -2.051965     -0.309421
  N       1.247535      0.222282      0.258600
  P       2.819546     -0.196887      0.391695
  C       3.703091      1.326396      0.702519
  O       3.220979     -1.341248      1.264872
  F       3.276147     -0.514779     -1.134885
  H      -3.832260     -1.908433      0.414039
  H      -3.247650     -0.553337      1.409666
  H      -2.310827     -2.065289      1.328942
  H      -2.818875     -0.171601     -1.056878
  H      -1.882049     -1.650033     -1.136791
  H      -2.222643      1.471556      0.565582
  H      -0.507418      1.667025      0.971035
  H      -1.210364      3.286521     -0.817162
  H       0.030274      2.159832     -1.424465
  H      -1.684011      1.932417     -1.870834
  H       0.396806     -2.225909     -1.396259
  H      -0.378457     -2.652847      0.146408
  H       1.379608     -2.393784      0.087409
  H       4.782883      1.126382      0.686479
  H       3.419638      1.696645      1.697683
  H       3.447912      2.080598     -0.052815
28
Coordinates from ORCA-job opt E -901.745007856858
  C      -2.930804     -1.371185      0.742746
  C      -2.171469     -0.831917     -0.462146
  N      -0.985718     -0.057163     -0.094461
  C      -1.198046      1.364882      0.176928
  C      -1.013421      2.232813     -1.060553
  C       0.248903     -0.577366     -0.026470
  C       0.419201     -2.050467     -0.310120
  N       1.249961      0.224295      0.252046
  P       2.820018     -0.197854      0.394508
  C       3.705740      1.324522      0.703772
  O       3.215172     -1.340147      1.273260
  F       3.282880     -0.524274     -1.129197
  H      -3.832564     -1.906636      0.411607
  H      -3.245163     -0.556327      1.412049
  H      -2.310426     -2.069380      1.324690
  H      -2.818239     -0.167073     -1.054597
  H      -1.882357     -1.645204     -1.139478
  H      -2.217299      1.472046      0.576383
  H      -0.498700      1.669190      0.966098
  H      -1.219807      3.285889     -0.818434
  H       0.018208      2.160668     -1.434035
  H      -1.699220      1.929566     -1.866460
  H       0.408401     -2.220539     -1.397888
  H      -0.382338     -2.651270      0.136537
  H       1.377021     -2.395093      0.093849
  H       4.785080      1.120905      0.694711
  H       3.418606      1.704160      1.694192
  H       3.456380      2.072959     -0.059537
28
Coordinates from ORCA-job opt E -901.745024285012
  C      -2.927005     -1.372726      0.744815
  C      -2.171043     -0.828132     -0.460180
  N      -0.984062     -0.055377     -0.093987
  C      -1.194836      1.366680      0.175554
  C      -1.027364      2.232448     -1.066282
  C       0.250581     -0.575334     -0.031014
  C       0.419593     -2.048446     -0.312879
  N       1.253562      0.225854      0.242015
  P       2.821283     -0.199915      0.396488
  C       3.708788      1.320272      0.710278
  O       3.207465     -1.341844      1.280078
  F       3.295707     -0.530869     -1.122561
  H      -3.830556     -1.905783      0.414623
  H      -3.238315     -0.560649      1.419077
  H      -2.305196     -2.074179      1.321536
  H      -2.820032     -0.160802     -1.047376
  H      -1.885428     -1.638545     -1.142536
  H      -2.208899      1.474255      0.588340
  H      -0.485756      1.674058      0.954633
  H      -1.232114      3.285919     -0.824369
  H      -0.000538      2.161008     -1.453310
  H      -1.723001      1.926636     -1.862894
  H       0.422681     -2.215312     -1.401348
  H      -0.388161     -2.648629      0.122921
  H       1.372443     -2.395909      0.100936
  H       4.787656      1.113546      0.710939
  H       3.414356      1.706389      1.695929
  H       3.468192      2.065385     -0.059426
28
Coordinates from ORCA-job opt E -901.745029609340
  C      -2.926207     -1.373992      0.745575
  C      -2.170922     -0.826229     -0.458482
  N      -0.983659     -0.054467     -0.091947
  C      -1.193353      1.368045      0.174962
  C      -1.033042      2.231583     -1.069396
  C       0.250652     -0.574787     -0.030426
  C       0.418971     -2.047779     -0.312614
  N       1.255552      0.225944      0.236963
  P       2.822677     -0.200767      0.394916
  C       3.710185      1.318274      0.713091
  O       3.205603     -1.343589      1.279179
  F       3.302977     -0.529929     -1.121857
  H      -3.830124     -1.906048      0.414859
  H      -3.236827     -0.563396      1.422010
  H      -2.304187     -2.076906      1.320331
  H      -2.820486     -0.157114     -1.042946
  H      -1.886428     -1.634807     -1.143678
  H      -2.205123      1.476490      0.593361
  H      -0.480214      1.677467      0.949415
  H      -1.235797      3.285649     -0.828521
  H      -0.008660      2.158929     -1.462843
  H      -1.733521      1.924697     -1.861405
  H       0.431783     -2.211922     -1.401517
  H      -0.392374     -2.648571      0.115300
  H       1.368556     -2.396563      0.107865
  H       4.789019      1.111440      0.717463
  H       3.411738      1.704311      1.697572
  H       3.473212      2.064036     -0.057229
28
Coordinates from ORCA-job opt E -901.745031523764
  C      -2.923899     -1.374582      0.747977
  C      -2.171865     -0.824802     -0.457072
  N      -0.983558     -0.053456     -0.092668
  C      -1.191885      1.369531      0.173073
  C      -1.037441      2.231325     -1.073064
  C       0.250596     -0.574371     -0.033531
  C       0.418587     -2.047988     -0.313123
  N       1.256827      0.225660      0.230923
  P       2.823389     -0.201722      0.392850
  C       3.710137      1.316381      0.717157
  O       3.202542     -1.346248      1.276820
  F       3.310013     -0.526885     -1.121865
  H      -3.828712     -1.905997      0.418776
  H      -3.232557     -0.564896      1.426389
  H      -2.300583     -2.078395      1.320157
  H      -2.823038     -0.154286     -1.038072
  H      -1.889370     -1.631916     -1.144859
  H      -2.201600      1.478587      0.596309
  H      -0.475031      1.679980      0.943663
  H      -1.237561      3.285899     -0.832391
  H      -0.015389      2.156912     -1.472210
  H      -1.742482      1.924429     -1.861000
  H       0.439652     -2.212202     -1.401902
  H      -0.395274     -2.649109      0.109237
  H       1.365694     -2.396085      0.113639
  H       4.788988      1.109969      0.725170
  H       3.407230      1.699666      1.701404
  H       3.476592      2.064602     -0.051790
28
Coordinates from ORCA-job opt E -901.745030244011
  C      -2.923785     -1.373849      0.749252
  C      -2.172252     -0.825166     -0.456467
  N      -0.983741     -0.053405     -0.092780
  C      -1.191829      1.369848      0.172707
  C      -1.037286      2.230916     -1.073774
  C       0.250318     -0.574734     -0.033960
  C       0.418539     -2.048447     -0.313489
  N       1.256935      0.225274      0.229177
  P       2.823570     -0.201799      0.391219
  C       3.709567      1.316305      0.718051
  O       3.202203     -1.347401      1.273989
  F       3.311208     -0.524014     -1.123508
  H      -3.828664     -1.905474      0.420608
  H      -3.232188     -0.563515      1.426947
  H      -2.300509     -2.077191      1.321939
  H      -2.823525     -0.154902     -1.037606
  H      -1.889543     -1.632630     -1.143759
  H      -2.201491      1.478933      0.595973
  H      -0.474768      1.680277      0.943125
  H      -1.236501      3.285684     -0.833254
  H      -0.015463      2.155541     -1.473212
  H      -1.742773      1.924301     -1.861363
  H       0.443654     -2.212235     -1.402233
  H      -0.396521     -2.650199      0.105514
  H       1.364419     -2.395967      0.116398
  H       4.788505      1.110522      0.726298
  H       3.405746      1.696838      1.703126
  H       3.476178      2.066486     -0.048917
28
Coordinates from ORCA-job opt E -901.745031395849
  C      -2.923565     -1.373662      0.749615
  C      -2.172644     -0.825333     -0.456594
  N      -0.983938     -0.053455     -0.093313
  C      -1.191941      1.369773      0.172791
  C      -1.036526      2.231119     -1.073376
  C       0.250091     -0.574973     -0.034637
  C       0.418575     -2.048803     -0.313497
  N       1.256715      0.225178      0.228055
  P       2.823279     -0.201719      0.390795
  C       3.709064      1.316628      0.717579
  O       3.201470     -1.346995      1.274081
  F       3.311123     -0.524363     -1.123786
  H      -3.828525     -1.905446      0.421407
  H      -3.231761     -0.563155      1.427174
  H      -2.300035     -2.076822      1.322251
  H      -2.824109     -0.155196     -1.037675
  H      -1.889889     -1.632847     -1.143746
  H      -2.201826      1.478698      0.595505
  H      -0.475165      1.679646      0.943709
  H      -1.235538      3.285856     -0.832513
  H      -0.014499      2.155537     -1.472208
  H      -1.741676      1.924961     -1.861422
  H       0.445915     -2.212789     -1.402158
  H      -0.397206     -2.650719      0.103808
  H       1.363792     -2.395793      0.118277
  H       4.788009      1.110872      0.726232
  H       3.404989      1.696717      1.702763
  H       3.475822      2.067084     -0.049119
