21
Tabun P3R q=0
C      3.30754239     0.80678734    -0.35628380
C      2.23474779     0.03449588     0.38321149
O      0.99671917     0.23063317    -0.28045022
P     -0.27464798    -0.62032106     0.24570656
O     -0.29706967    -0.78347963     1.73805041
C      0.02569233    -2.31441341    -0.40803813
N      0.21625854    -3.38068846    -0.83679518
N     -1.62045128     0.02585032    -0.46337613
C     -1.82833907     1.45130780    -0.22263205
C     -2.87178247    -0.68865100    -0.22156318
H      3.38405657     0.46332294    -1.39324336
H      4.28025982     0.68557313     0.12847217
H      3.06046166     1.87301187    -0.39150407
H      2.15309536     0.39799535     1.41227605
H      2.48399560    -1.03084736     0.40081999
H     -2.65931167     1.83973637    -0.82161404
H     -0.94032814     2.02189698    -0.51319650
H     -2.03002899     1.65373080     0.83475755
H     -2.77308438    -1.74166060    -0.50327886
H     -3.68726673    -0.27825539    -0.82718747
H     -3.16051883    -0.64602504     0.83415073
