32
Coordinates from ORCA-job opt E -1016.165186011955
  C           3.75417940901948     -0.26684123447467      2.46560037940727
  C           3.72841032134010      0.08145605663040      0.99661394297030
  O           2.45144114844855     -0.30090844225770      0.46255038222488
  P           2.15254221220868     -0.15954522134460     -1.11391387175988
  O           3.31237032494531     -0.52910268597308     -1.96178983967436
  F           1.90564491128821      1.43228929704987     -1.24910976281229
  N           0.76098816694507     -0.87489927284171     -1.39846858347620
  C          -0.53106260927660     -0.66146222171438     -1.44099064842787
  C          -1.29278430214053     -1.45822493185108     -2.47193727815737
  N          -1.22159605566912      0.18808948432803     -0.66725549936999
  C          -0.58342060236164      0.95128265439588      0.41062758838464
  C          -1.38448965662813      1.00667858156000      1.70270365376493
  C          -2.62947626275688      0.50663984877134     -0.95393877949851
  C          -3.65362295738770     -0.37931476942865     -0.25374822597335
  H           2.96012596433542      0.26736102358441      3.00801656709296
  H           3.61315369498390     -1.34775280000257      2.61228263627505
  H           4.72315267398859      0.01994181865556      2.89915472109210
  H           4.51879348744016     -0.44677241462829      0.44093231012789
  H           3.86989914085572      1.16391369376970      0.84254583843317
  H          -0.65832183562353     -2.28753848888225     -2.80049775912455
  H          -2.24879724011382     -1.84794085789893     -2.10369484673800
  H          -1.49707607258841     -0.81711291192549     -3.34436132891721
  H          -0.37094810673655      1.96993573523670      0.04601007744905
  H           0.37602537181759      0.47671621577465      0.63138664776313
  H          -0.79123266457547      1.54968810193550      2.45264598938294
  H          -2.34076438403860      1.53839278602486      1.59513606247720
  H          -1.58265776357369     -0.00234438819869      2.09392954790238
  H          -2.77624057616130      1.55707832268138     -0.66298557401559
  H          -2.78122070952401      0.47820569283999     -2.04056679191417
  H          -3.59106128151758     -0.29479570886755      0.83890565306277
  H          -3.52716486606025     -1.43896465053025     -0.51787770965075
  H          -4.66478886088301     -0.07414830241839     -0.56063200830057
