32
Coordinates from ORCA-job opt E -1016.127703004751
  C       3.678771      0.362831      2.035714
  C       3.474665      0.527139      0.543972
  O       2.389858     -0.290241      0.143822
  P       1.849156     -0.070544     -1.365179
  O       2.967620      0.002224     -2.364012
  F       1.185788      1.353387     -1.257630
  N       0.668386     -1.097850     -1.639238
  C      -0.534209     -1.082710     -1.185395
  C      -1.442354     -2.186197     -1.691123
  N      -1.117156     -0.174277     -0.321078
  C      -0.576413     -0.023511      1.034259
  C      -1.694533      0.043196      2.062819
  C      -1.759888      1.014867     -0.899244
  C      -3.249899      0.777806     -1.085216
  H       2.773530      0.648269      2.581954
  H       3.883450     -0.683797      2.284236
  H       4.511799      0.978503      2.386170
  H       4.375979      0.220803      0.004121
  H       3.256363      1.573772      0.308386
  H      -0.878930     -3.118366     -1.792646
  H      -2.273387     -2.348675     -0.999121
  H      -1.838405     -1.901437     -2.670022
  H       0.052428      0.871357      1.100550
  H       0.053128     -0.886449      1.281870
  H      -1.276607      0.075093      3.073926
  H      -2.311816      0.936717      1.927859
  H      -2.348014     -0.832438      1.989241
  H      -1.610811      1.891063     -0.257355
  H      -1.306940      1.259025     -1.867752
  H      -3.733831      0.520503     -0.137870
  H      -3.437944     -0.038890     -1.788851
  H      -3.729782      1.678828     -1.479895
32
Coordinates from ORCA-job opt E -1016.136779148613
  C       3.705611      0.187719      2.108274
  C       3.528881      0.465059      0.631161
  O       2.412917     -0.295620      0.157851
  P       1.873198      0.015168     -1.329846
  O       2.966472      0.115041     -2.338649
  F       1.204974      1.444661     -1.144786
  N       0.686999     -1.033253     -1.630591
  C      -0.533612     -1.052170     -1.208881
  C      -1.405275     -2.170803     -1.729237
  N      -1.146655     -0.133469     -0.357449
  C      -0.533879      0.143289      0.946672
  C      -1.576863      0.192534      2.055851
  C      -1.922911      0.952124     -0.976441
  C      -3.416324      0.647489     -1.073159
  H       2.801147      0.470042      2.668022
  H       3.882568     -0.884081      2.282914
  H       4.558025      0.754990      2.506169
  H       4.430783      0.172997      0.071396
  H       3.345106      1.538663      0.464587
  H      -0.811742     -3.087708     -1.839870
  H      -2.245996     -2.354708     -1.050707
  H      -1.798308     -1.888137     -2.719248
  H       0.033732      1.090584      0.918482
  H       0.185215     -0.655389      1.178299
  H      -1.085197      0.326772      3.030971
  H      -2.279384      1.028460      1.917259
  H      -2.157642     -0.741281      2.088068
  H      -1.772147      1.868725     -0.387515
  H      -1.524917      1.167760     -1.980953
  H      -3.840696      0.428408     -0.082767
  H      -3.605015     -0.220801     -1.721052
  H      -3.959070      1.506936     -1.497552
32
Coordinates from ORCA-job opt E -1016.141898495346
  C       3.756001      0.112937      2.140573
  C       3.629003      0.412850      0.665677
  O       2.463698     -0.273711      0.164637
  P       1.941903      0.049965     -1.317493
  O       3.004113      0.075714     -2.345765
  F       1.316439      1.519375     -1.157157
  N       0.712905     -0.994813     -1.583501
  C      -0.525344     -1.011793     -1.201142
  C      -1.391479     -2.097697     -1.775894
  N      -1.162248     -0.096859     -0.355257
  C      -0.554586      0.254191      0.930583
  C      -1.586956      0.268346      2.050561
  C      -2.037243      0.891893     -0.996256
  C      -3.518961      0.523688     -1.044091
  H       2.866420      0.461927      2.689176
  H       3.862495     -0.970561      2.309417
  H       4.642384      0.619803      2.551128
  H       4.515797      0.067678      0.108092
  H       3.516832      1.498149      0.496840
  H      -0.796730     -3.011184     -1.911431
  H      -2.254624     -2.293195     -1.128678
  H      -1.758077     -1.782152     -2.769998
  H      -0.043736      1.234709      0.879628
  H       0.216404     -0.494545      1.156514
  H      -1.091140      0.461176      3.015823
  H      -2.344723      1.055490      1.900430
  H      -2.104703     -0.702439      2.114721
  H      -1.902308      1.831442     -0.436848
  H      -1.668638      1.093990     -2.018197
  H      -3.907209      0.326663     -0.031981
  H      -3.688886     -0.376087     -1.656343
  H      -4.106801      1.345049     -1.486494
32
Coordinates from ORCA-job opt E -1016.145303875752
  C       3.723039     -0.000435      2.204482
  C       3.641836      0.355396      0.740774
  O       2.468771     -0.284512      0.188250
  P       1.971493      0.082486     -1.285342
  O       3.020795      0.120568     -2.318281
  F       1.344606      1.556610     -1.094038
  N       0.731458     -0.957017     -1.577483
  C      -0.516213     -0.968510     -1.237050
  C      -1.380389     -2.036181     -1.843988
  N      -1.154783     -0.056083     -0.399436
  C      -0.506191      0.394822      0.830011
  C      -1.475174      0.396170      2.004515
  C      -2.142648      0.827507     -1.029271
  C      -3.597807      0.376297     -0.954207
  H       2.833698      0.358621      2.744780
  H       3.799520     -1.090610      2.336593
  H       4.614116      0.467040      2.649570
  H       4.527896      0.008525      0.184939
  H       3.556717      1.446361      0.602611
  H      -0.784774     -2.946397     -1.991513
  H      -2.256972     -2.239633     -1.218401
  H      -1.727974     -1.704937     -2.839209
  H      -0.064690      1.402326      0.709426
  H       0.325150     -0.291754      1.035525
  H      -0.942307      0.670529      2.928675
  H      -2.291903      1.122207      1.861871
  H      -1.918980     -0.602404      2.142992
  H      -2.024886      1.801252     -0.526794
  H      -1.853785      0.997318     -2.082011
  H      -3.904800      0.216470      0.091351
  H      -3.758091     -0.562204     -1.506191
  H      -4.256729      1.140170     -1.395875
32
Coordinates from ORCA-job opt E -1016.150414099894
  C       3.700543     -0.078243      2.279357
  C       3.699387      0.266147      0.812311
  O       2.500641     -0.295409      0.223297
  P       2.059544      0.063717     -1.262364
  O       3.107986      0.025160     -2.290923
  F       1.501306      1.578437     -1.117959
  N       0.767012     -0.920482     -1.557318
  C      -0.496995     -0.882972     -1.285946
  C      -1.367323     -1.903475     -1.964114
  N      -1.144985      0.014179     -0.457373
  C      -0.498312      0.564941      0.727633
  C      -1.419426      0.520676      1.939339
  C      -2.280796      0.749556     -1.035384
  C      -3.673051      0.178493     -0.795945
  H       2.826035      0.357639      2.783956
  H       3.694142     -1.168455      2.424135
  H       4.609445      0.326908      2.748354
  H       4.571704     -0.149339      0.284406
  H       3.692646      1.356585      0.654459
  H      -0.780590     -2.814903     -2.133805
  H      -2.269281     -2.118612     -1.381075
  H      -1.673690     -1.531219     -2.957313
  H      -0.156065      1.601723      0.559562
  H       0.397822     -0.037710      0.916470
  H      -0.881040      0.880703      2.829424
  H      -2.304022      1.162166      1.803892
  H      -1.761784     -0.507786      2.131464
  H      -2.212771      1.757772     -0.595362
  H      -2.106245      0.886006     -2.116147
  H      -3.866637      0.055029      0.280321
  H      -3.803276     -0.797977     -1.282867
  H      -4.431923      0.860748     -1.207212
32
Coordinates from ORCA-job opt E -1016.157236473037
  C       3.733121     -0.213930      2.365339
  C       3.795784      0.122492      0.898671
  O       2.562647     -0.327105      0.285930
  P       2.162120      0.038536     -1.202984
  O       3.203566     -0.069223     -2.235925
  F       1.707342      1.593594     -1.079397
  N       0.809731     -0.849663     -1.515650
  C      -0.472650     -0.755492     -1.348266
  C      -1.305122     -1.729398     -2.145118
  N      -1.163807      0.105969     -0.554917
  C      -0.568061      0.815508      0.567097
  C      -1.430108      0.721575      1.819494
  C      -2.468089      0.617431     -1.032650
  C      -3.733131     -0.068407     -0.534187
  H       2.899868      0.312244      2.849598
  H       3.619759     -1.296084      2.513525
  H       4.668295      0.102434      2.848752
  H       4.629434     -0.376742      0.384844
  H       3.888858      1.205377      0.730819
  H      -0.697398     -2.621145     -2.335793
  H      -2.236898     -1.997011     -1.640856
  H      -1.552296     -1.304663     -3.130794
  H      -0.387716      1.872930      0.319380
  H       0.407852      0.360055      0.756302
  H      -0.921384      1.221451      2.655721
  H      -2.402052      1.215726      1.682591
  H      -1.608469     -0.327275      2.097067
  H      -2.484648      1.668732     -0.705071
  H      -2.455971      0.654561     -2.131069
  H      -3.765645     -0.090179      0.563539
  H      -3.827497     -1.096370     -0.899667
  H      -4.607432      0.494073     -0.889052
32
Coordinates from ORCA-job opt E -1016.161376574187
  C       3.569206     -0.162198      2.459745
  C       3.732432      0.046005      0.976094
  O       2.496576     -0.332476      0.331957
  P       2.210064     -0.075164     -1.206250
  O       3.310148     -0.353526     -2.155155
  F       1.916680      1.519163     -1.233305
  N       0.814364     -0.840317     -1.546029
  C      -0.473024     -0.666267     -1.458482
  C      -1.287470     -1.532232     -2.399655
  N      -1.160744      0.153149     -0.654886
  C      -0.548835      0.915093      0.430620
  C      -1.303362      0.794209      1.749052
  C      -2.564461      0.525171     -0.962056
  C      -3.670817     -0.243096     -0.249519
  H       2.769530      0.477396      2.855757
  H       3.341458     -1.212470      2.683855
  H       4.506046      0.102241      2.969619
  H       4.535063     -0.573427      0.552186
  H       3.941424      1.097368      0.731436
  H      -0.690797     -2.420799     -2.631046
  H      -2.256083     -1.828547     -1.990601
  H      -1.456793     -1.011130     -3.352854
  H      -0.455370      1.973122      0.147700
  H       0.463725      0.527827      0.573139
  H      -0.754557      1.332738      2.533266
  H      -2.304912      1.238230      1.689888
  H      -1.406372     -0.256718      2.054074
  H      -2.650300      1.586433     -0.684417
  H      -2.708667      0.495157     -2.047516
  H      -3.560116     -0.198220      0.839900
  H      -3.722275     -1.298130     -0.540703
  H      -4.631761      0.221415     -0.508539
32
Coordinates from ORCA-job opt E -1016.163620060265
  C       3.606471     -0.153521      2.476150
  C       3.728371      0.007042      0.980319
  O       2.471244     -0.355804      0.383743
  P       2.176796     -0.130784     -1.168398
  O       3.311206     -0.443888     -2.079699
  F       1.933694      1.462040     -1.216563
  N       0.786300     -0.848395     -1.510999
  C      -0.505411     -0.640907     -1.457601
  C      -1.303815     -1.467456     -2.450942
  N      -1.194006      0.185435     -0.666102
  C      -0.561280      0.958672      0.412179
  C      -1.277221      0.893147      1.755156
  C      -2.607572      0.525507     -0.938738
  C      -3.651063     -0.363680     -0.270909
  H       2.829583      0.513561      2.876503
  H       3.353865     -1.190869      2.737349
  H       4.561985      0.101099      2.956249
  H       4.507994     -0.647472      0.562497
  H       3.963855      1.047465      0.706973
  H      -0.711776     -2.356687     -2.693182
  H      -2.287428     -1.776547     -2.080617
  H      -1.442612     -0.901638     -3.384170
  H      -0.456355      2.005779      0.089711
  H       0.445250      0.563191      0.564516
  H      -0.677241      1.426487      2.505675
  H      -2.262388      1.376372      1.727229
  H      -1.407606     -0.146373      2.089824
  H      -2.754797      1.563986     -0.607274
  H      -2.760647      0.539267     -2.023296
  H      -3.551725     -0.379431      0.819236
  H      -3.617730     -1.404218     -0.625628
  H      -4.645944      0.038620     -0.511917
32
Coordinates from ORCA-job opt E -1016.164585150090
  C       3.562318     -0.138394      2.492400
  C       3.694632     -0.012641      0.993845
  O       2.429395     -0.351076      0.399880
  P       2.163988     -0.145311     -1.166770
  O       3.326994     -0.491793     -2.025694
  F       1.943875      1.450757     -1.239743
  N       0.776417     -0.849084     -1.520622
  C      -0.517789     -0.634612     -1.490136
  C      -1.308960     -1.419103     -2.514993
  N      -1.194088      0.201485     -0.687049
  C      -0.539587      0.964006      0.383757
  C      -1.259318      0.917922      1.723624
  C      -2.614498      0.504500     -0.916727
  C      -3.601893     -0.405592     -0.194884
  H       2.801284      0.557911      2.876727
  H       3.276540     -1.163406      2.773147
  H       4.523093      0.098181      2.973181
  H       4.461909     -0.696355      0.596309
  H       3.965699      1.016700      0.704952
  H      -0.714014     -2.294884     -2.797836
  H      -2.294024     -1.747071     -2.163161
  H      -1.447353     -0.801378     -3.417720
  H      -0.417910      2.008546      0.049443
  H       0.458224      0.549223      0.538105
  H      -0.643591      1.444731      2.467523
  H      -2.239862      1.418000      1.699869
  H      -1.400502     -0.118526      2.066721
  H      -2.768064      1.546655     -0.600703
  H      -2.805050      0.489197     -1.999079
  H      -3.465431     -0.390232      0.894849
  H      -3.529629     -1.452296     -0.528077
  H      -4.622804     -0.056062     -0.413866
32
Coordinates from ORCA-job opt E -1016.164896505291
  C       3.600119     -0.133427      2.482727
  C       3.710985     -0.018905      0.981297
  O       2.433240     -0.344476      0.409722
  P       2.162332     -0.144770     -1.162030
  O       3.330363     -0.501440     -2.006456
  F       1.944075      1.452248     -1.242173
  N       0.772581     -0.844692     -1.506556
  C      -0.522262     -0.633872     -1.483412
  C      -1.310160     -1.419456     -2.503865
  N      -1.196046      0.200558     -0.675193
  C      -0.546892      0.950090      0.405114
  C      -1.304678      0.930131      1.724362
  C      -2.611894      0.510509     -0.915903
  C      -3.606872     -0.409931     -0.218198
  H       2.854572      0.574554      2.874965
  H       3.303698     -1.152188      2.773986
  H       4.571078      0.092091      2.947475
  H       4.465176     -0.712912      0.577839
  H       3.992647      1.004757      0.683710
  H      -0.703277     -2.277648     -2.812110
  H      -2.283100     -1.770705     -2.143312
  H      -1.475170     -0.784231     -3.389555
  H      -0.392072      1.988635      0.065542
  H       0.435063      0.511215      0.586170
  H      -0.697622      1.454473      2.477021
  H      -2.276892      1.443431      1.672943
  H      -1.466008     -0.099934      2.076337
  H      -2.762489      1.549160     -0.587495
  H      -2.791833      0.512369     -1.999567
  H      -3.487651     -0.398814      0.873632
  H      -3.512399     -1.451904     -0.556923
  H      -4.628614     -0.074916     -0.452820
32
Coordinates from ORCA-job opt E -1016.165030994643
  C       3.647858     -0.162938      2.483220
  C       3.733838     -0.036153      0.981041
  O       2.444695     -0.347230      0.429325
  P       2.161189     -0.135909     -1.142844
  O       3.327531     -0.484760     -1.988926
  F       1.935201      1.462778     -1.210551
  N       0.768592     -0.831442     -1.481266
  C      -0.527840     -0.630762     -1.475396
  C      -1.299392     -1.410058     -2.509851
  N      -1.208996      0.199199     -0.673102
  C      -0.567101      0.963377      0.400710
  C      -1.339056      0.975436      1.712116
  C      -2.630147      0.490604     -0.920262
  C      -3.620510     -0.429539     -0.214979
  H       2.916465      0.547928      2.895006
  H       3.346994     -1.181080      2.770587
  H       4.628808      0.048779      2.932626
  H       4.476810     -0.729918      0.558284
  H       4.018627      0.987481      0.687857
  H      -0.673688     -2.243391     -2.844809
  H      -2.262188     -1.792071     -2.155192
  H      -1.485972     -0.753524     -3.374995
  H      -0.399171      1.993018      0.043470
  H       0.410179      0.518854      0.597737
  H      -0.737565      1.517532      2.456371
  H      -2.310240      1.485450      1.641646
  H      -1.499715     -0.045379      2.089154
  H      -2.788939      1.532310     -0.605781
  H      -2.807837      0.480325     -2.003242
  H      -3.516828     -0.386629      0.876646
  H      -3.495919     -1.476345     -0.524650
  H      -4.645686     -0.125942     -0.472676
32
Coordinates from ORCA-job opt E -1016.165090556868
  C       3.646747     -0.144625      2.482128
  C       3.730995     -0.029601      0.978794
  O       2.440280     -0.339072      0.431306
  P       2.162117     -0.142478     -1.144834
  O       3.329907     -0.500905     -1.984888
  F       1.938733      1.456113     -1.228435
  N       0.767173     -0.833226     -1.478108
  C      -0.528217     -0.632065     -1.477493
  C      -1.300638     -1.411453     -2.513005
  N      -1.208604      0.192412     -0.670050
  C      -0.561582      0.943726      0.410331
  C      -1.337029      0.959393      1.719560
  C      -2.627777      0.498821     -0.919118
  C      -3.626536     -0.418718     -0.223210
  H       2.919949      0.573342      2.889458
  H       3.340866     -1.158867      2.777703
  H       4.629519      0.064822      2.928527
  H       4.470648     -0.729321      0.560143
  H       4.019880      0.990460      0.677319
  H      -0.670050     -2.235569     -2.860843
  H      -2.256610     -1.805292     -2.151322
  H      -1.503635     -0.750633     -3.370971
  H      -0.376977      1.972556      0.060199
  H       0.410127      0.483926      0.606391
  H      -0.734883      1.496769      2.466499
  H      -2.304388      1.475440      1.645934
  H      -1.505640     -0.060669      2.095256
  H      -2.780190      1.538954     -0.596183
  H      -2.803198      0.499969     -2.002180
  H      -3.532592     -0.374232      0.869211
  H      -3.499788     -1.466288     -0.530399
  H      -4.648608     -0.113688     -0.490449
32
Coordinates from ORCA-job opt E -1016.165128277395
  C       3.659731     -0.155416      2.481590
  C       3.737679     -0.029036      0.978834
  O       2.446076     -0.340106      0.433702
  P       2.164081     -0.141059     -1.141221
  O       3.328676     -0.494644     -1.988342
  F       1.937279      1.457526     -1.220782
  N       0.767709     -0.829353     -1.469705
  C      -0.527261     -0.629828     -1.475595
  C      -1.298221     -1.412447     -2.511650
  N      -1.213152      0.191931     -0.669512
  C      -0.567874      0.945635      0.410928
  C      -1.347039      0.968035      1.717477
  C      -2.631480      0.497467     -0.922742
  C      -3.629000     -0.418998     -0.224412
  H       2.931341      0.556763      2.896652
  H       3.359537     -1.173330      2.770958
  H       4.643422      0.054866      2.925919
  H       4.479017     -0.722483      0.552085
  H       4.020955      0.994636      0.683373
  H      -0.663124     -2.231154     -2.864384
  H      -2.249292     -1.813886     -2.143071
  H      -1.513464     -0.753510     -3.368246
  H      -0.376088      1.973135      0.059963
  H       0.401396      0.481673      0.609893
  H      -0.748238      1.508631      2.464843
  H      -2.313628      1.485127      1.636170
  H      -1.520130     -0.050218      2.096782
  H      -2.786748      1.538373     -0.603334
  H      -2.804214      0.494502     -2.006534
  H      -3.543848     -0.360742      0.868488
  H      -3.493405     -1.470010     -0.518048
  H      -4.650693     -0.122079     -0.502805
32
Coordinates from ORCA-job opt E -1016.165143981079
  C       3.664764     -0.162618      2.481283
  C       3.739867     -0.026451      0.979335
  O       2.448214     -0.339144      0.434204
  P       2.164403     -0.140055     -1.139605
  O       3.326966     -0.492115     -1.990488
  F       1.936275      1.458612     -1.218612
  N       0.767452     -0.828345     -1.463010
  C      -0.527060     -0.630687     -1.473536
  C      -1.296680     -1.412078     -2.511658
  N      -1.215929      0.190672     -0.668292
  C      -0.569244      0.945082      0.410977
  C      -1.349792      0.974474      1.716289
  C      -2.633099      0.495559     -0.924258
  C      -3.630896     -0.419859     -0.224500
  H       2.933823      0.543875      2.901688
  H       3.369740     -1.183778      2.764650
  H       4.648198      0.049262      2.925486
  H       4.483276     -0.714303      0.546988
  H       4.018304      1.000280      0.689730
  H      -0.657970     -2.225351     -2.870626
  H      -2.242653     -1.820933     -2.138053
  H      -1.522414     -0.752472     -3.365016
  H      -0.371343      1.971040      0.058392
  H       0.397684      0.476879      0.611111
  H      -0.751207      1.515882      2.463213
  H      -2.314422      1.495084      1.630534
  H      -1.528780     -0.041745      2.098290
  H      -2.789486      1.537254     -0.608005
  H      -2.803636      0.489052     -2.008472
  H      -3.552628     -0.352196      0.868419
  H      -3.489665     -1.472770     -0.508290
  H      -4.652061     -0.128109     -0.510893
32
Coordinates from ORCA-job opt E -1016.165141009949
  C       3.668552     -0.168635      2.481006
  C       3.741686     -0.025579      0.979627
  O       2.449946     -0.338426      0.434629
  P       2.164177     -0.139097     -1.138216
  O       3.325714     -0.491043     -1.990838
  F       1.936840      1.459626     -1.216874
  N       0.767144     -0.827456     -1.458838
  C      -0.527162     -0.629862     -1.472915
  C      -1.295118     -1.411916     -2.511341
  N      -1.217330      0.192007     -0.668889
  C      -0.570842      0.946928      0.409929
  C      -1.353487      0.979754      1.713859
  C      -2.634561      0.494630     -0.924706
  C      -3.630765     -0.421550     -0.223245
  H       2.936179      0.533998      2.905272
  H       3.376617     -1.191818      2.760078
  H       4.651824      0.044008      2.925108
  H       4.485830     -0.710040      0.543361
  H       4.017253      1.003043      0.694285
  H      -0.654415     -2.223227     -2.871137
  H      -2.238989     -1.824095     -2.136215
  H      -1.524360     -0.753035     -3.364127
  H      -0.370957      1.971962      0.055792
  H       0.395021      0.477588      0.612165
  H      -0.755352      1.521269      2.461004
  H      -2.316899      1.502245      1.625565
  H      -1.535672     -0.035403      2.096967
  H      -2.792443      1.536523     -0.609974
  H      -2.805519      0.485916     -2.008749
  H      -3.553927     -0.350650      0.869549
  H      -3.486626     -1.474800     -0.503682
  H      -4.652360     -0.132865     -0.511177
32
Coordinates from ORCA-job opt E -1016.165149019164
  C       3.672345     -0.171932      2.480197
  C       3.743203     -0.022660      0.979315
  O       2.451611     -0.336776      0.434731
  P       2.163451     -0.138329     -1.137260
  O       3.324117     -0.489894     -1.991362
  F       1.935546      1.460137     -1.216722
  N       0.766821     -0.828711     -1.454719
  C      -0.527436     -0.631269     -1.471077
  C      -1.294612     -1.413942     -2.509125
  N      -1.217737      0.192122     -0.668516
  C      -0.571392      0.946154      0.410908
  C      -1.355965      0.980518      1.713721
  C      -2.634292      0.495293     -0.926329
  C      -3.632481     -0.419357     -0.225378
  H       2.938062      0.526436      2.908104
  H       3.384328     -1.197202      2.755532
  H       4.655361      0.042539      2.923937
  H       4.488438     -0.703424      0.539293
  H       4.015123      1.007901      0.697703
  H      -0.652847     -2.224177     -2.869387
  H      -2.237055     -1.828259     -2.132810
  H      -1.526110     -0.755522     -3.361556
  H      -0.369975      1.970771      0.056510
  H       0.393653      0.475691      0.614676
  H      -0.758150      1.521505      2.461489
  H      -2.318516      1.504292      1.624096
  H      -1.540065     -0.034184      2.096966
  H      -2.791836      1.537680     -0.613171
  H      -2.804121      0.485131     -2.010537
  H      -3.557351     -0.347524      0.867465
  H      -3.488690     -1.472896     -0.504515
  H      -4.653427     -0.130114     -0.514908
32
Coordinates from ORCA-job opt E -1016.165149935802
  C       3.676709     -0.173850      2.479431
  C       3.744749     -0.019675      0.978903
  O       2.453089     -0.334911      0.435400
  P       2.162688     -0.138374     -1.136171
  O       3.322763     -0.489764     -1.991283
  F       1.933700      1.459686     -1.217342
  N       0.766509     -0.830781     -1.450807
  C      -0.527718     -0.632699     -1.469341
  C      -1.294125     -1.416320     -2.507056
  N      -1.217943      0.192168     -0.668354
  C      -0.572388      0.945203      0.412205
  C      -1.358779      0.979679      1.713977
  C      -2.633909      0.496618     -0.927952
  C      -3.634383     -0.416232     -0.227843
  H       2.941120      0.521057      2.910687
  H       3.392086     -1.200782      2.752037
  H       4.659788      0.042230      2.922233
  H       4.490665     -0.697419      0.535443
  H       4.013589      1.012434      0.700072
  H      -0.651855     -2.226455     -2.866619
  H      -2.236267     -1.831327     -2.130712
  H      -1.525827     -0.758461     -3.359817
  H      -0.370067      1.969758      0.058271
  H       0.392098      0.474058      0.617229
  H      -0.761334      1.519729      2.462725
  H      -2.320750      1.504287      1.623618
  H      -1.544001     -0.035050      2.096599
  H      -2.790682      1.539455     -0.615835
  H      -2.802665      0.485729     -2.012291
  H      -3.560133     -0.344755      0.865063
  H      -3.492143     -1.469945     -0.507036
  H      -4.654586     -0.125288     -0.518162
32
Coordinates from ORCA-job opt E -1016.165151130706
  C       3.682919     -0.175213      2.478416
  C       3.746559     -0.014939      0.978329
  O       2.454674     -0.332125      0.436805
  P       2.161541     -0.139194     -1.134600
  O       3.321010     -0.490302     -1.990733
  F       1.929895      1.458178     -1.218951
  N       0.766037     -0.834769     -1.445405
  C      -0.528082     -0.635261     -1.466697
  C      -1.293870     -1.419756     -2.504117
  N      -1.218085      0.191645     -0.667837
  C      -0.573642      0.943224      0.414419
  C      -1.362024      0.976938      1.715044
  C      -2.632998      0.498771     -0.930428
  C      -3.637433     -0.411008     -0.232040
  H       2.945734      0.515159      2.914218
  H       3.403031     -1.204295      2.747807
  H       4.666260      0.043206      2.919496
  H       4.493481     -0.688510      0.530212
  H       4.011152      1.019182      0.702835
  H      -0.651650     -2.230507     -2.862366
  H      -2.236456     -1.834269     -2.128226
  H      -1.524557     -0.762483     -3.357617
  H      -0.370260      1.967968      0.061739
  H       0.390282      0.471200      0.620419
  H      -0.764931      1.515327      2.465298
  H      -2.323339      1.502583      1.624183
  H      -1.548459     -0.038135      2.096226
  H      -2.788079      1.542283     -0.619603
  H      -2.799637      0.487292     -2.015104
  H      -3.564474     -0.340510      0.861002
  H      -3.498328     -1.465008     -0.511794
  H      -4.656270     -0.116673     -0.523657
32
Coordinates from ORCA-job opt E -1016.165153108093
  C       3.692480     -0.176141      2.476984
  C       3.748930     -0.007919      0.977477
  O       2.456399     -0.328104      0.439641
  P       2.159722     -0.141666     -1.131978
  O       3.318617     -0.492905     -1.988910
  F       1.923619      1.454631     -1.222004
  N       0.765166     -0.841653     -1.437287
  C      -0.528639     -0.639241     -1.462674
  C      -1.293606     -1.423868     -2.500609
  N      -1.218404      0.190477     -0.666813
  C      -0.575596      0.940053      0.417846
  C      -1.366823      0.972640      1.716770
  C      -2.631687      0.501880     -0.933713
  C      -3.641692     -0.403771     -0.238124
  H       2.953520      0.508138      2.919375
  H       3.419226     -1.208041      2.742417
  H       4.676508      0.045510      2.914928
  H       4.497101     -0.675626      0.522672
  H       4.007540      1.028861      0.706175
  H      -0.652171     -2.236264     -2.856534
  H      -2.237900     -1.836174     -2.126488
  H      -1.520995     -0.766970     -3.355325
  H      -0.370461      1.965074      0.067081
  H       0.387467      0.466688      0.625090
  H      -0.770197      1.508242      2.469417
  H      -2.326978      1.500201      1.625010
  H      -1.555605     -0.042941      2.095524
  H      -2.784178      1.546208     -0.624208
  H      -2.795018      0.490126     -2.018914
  H      -3.570602     -0.335003      0.855130
  H      -3.507254     -1.458103     -0.519028
  H      -4.658489     -0.104340     -0.531652
32
Coordinates from ORCA-job opt E -1016.165155064096
  C       3.704260     -0.176818      2.475355
  C       3.751357      0.000714      0.976605
  O       2.457850     -0.323543      0.443786
  P       2.157371     -0.145853     -1.128391
  O       3.315720     -0.497993     -1.985660
  F       1.915594      1.449170     -1.226089
  N       0.763766     -0.850779     -1.427213
  C      -0.529426     -0.643949     -1.457825
  C      -1.293593     -1.427651     -2.497086
  N      -1.218988      0.188903     -0.665287
  C      -0.577794      0.936324      0.421862
  C      -1.372206      0.967981      1.718840
  C      -2.630272      0.505351     -0.937215
  C      -3.646454     -0.396219     -0.245473
  H       2.963423      0.500095      2.925899
  H       3.439141     -1.212017      2.736203
  H       4.689268      0.048748      2.909089
  H       4.501056     -0.659618      0.513576
  H       4.002489      1.040632      0.710146
  H      -0.653896     -2.242901     -2.849614
  H      -2.240933     -1.835655     -2.125934
  H      -1.515265     -0.771038     -3.353581
  H      -0.370361      1.961577      0.073170
  H       0.384254      0.461310      0.630305
  H      -0.776131      1.500230      2.474314
  H      -2.330790      1.498176      1.625702
  H      -1.564408     -0.048055      2.094708
  H      -2.779812      1.550350     -0.628466
  H      -2.789441      0.494022     -2.023089
  H      -3.577833     -0.329721      0.848057
  H      -3.517106     -1.450781     -0.528000
  H      -4.660841     -0.090991     -0.541419
32
Coordinates from ORCA-job opt E -1016.165156754773
  C       3.714424     -0.177043      2.473961
  C       3.752880      0.008260      0.975910
  O       2.458533     -0.320350      0.447823
  P       2.155211     -0.150747     -1.124989
  O       3.313289     -0.504471     -1.981906
  F       1.908814      1.443251     -1.229797
  N       0.762246     -0.859257     -1.418629
  C      -0.530237     -0.648103     -1.453658
  C      -1.293736     -1.429489     -2.495204
  N      -1.219641      0.187166     -0.663580
  C      -0.579368      0.932841      0.425318
  C      -1.376781      0.964954      1.720409
  C      -2.629159      0.508016     -0.939549
  C      -3.649899     -0.390995     -0.251284
  H       2.971939      0.493204      2.931697
  H       3.456748     -1.215076      2.730978
  H       4.700287      0.052226      2.903782
  H       4.504083     -0.645256      0.505721
  H       3.996942      1.050883      0.713410
  H      -0.656126     -2.247711     -2.844645
  H      -2.244431     -1.832789     -2.127627
  H      -1.509026     -0.772579     -3.353120
  H      -0.369220      1.957946      0.077825
  H       0.381482      0.456025      0.635141
  H      -0.781418      1.494664      2.478205
  H      -2.333707      1.497830      1.625173
  H      -1.572890     -0.051050      2.094309
  H      -2.776411      1.553238     -0.630553
  H      -2.784867      0.497785     -2.025959
  H      -3.583728     -0.326016      0.842478
  H      -3.523848     -1.445681     -0.534809
  H      -4.662386     -0.081678     -0.549555
32
Coordinates from ORCA-job opt E -1016.165158021241
  C       3.718386     -0.177676      2.473534
  C       3.752834      0.012026      0.975953
  O       2.458397     -0.319575      0.449715
  P       2.154265     -0.153611     -1.123391
  O       3.312242     -0.508750     -1.979754
  F       1.906358      1.440099     -1.231561
  N       0.761339     -0.863140     -1.415260
  C      -0.530708     -0.649640     -1.452283
  C      -1.294066     -1.429330     -2.495175
  N      -1.219980      0.186376     -0.662812
  C      -0.579544      0.931442      0.426390
  C      -1.378136      0.964753      1.720715
  C      -2.628847      0.508740     -0.940119
  C      -3.650832     -0.389848     -0.253104
  H       2.974566      0.488545      2.934939
  H       3.465001     -1.217358      2.728122
  H       4.704398      0.053843      2.901781
  H       4.505328     -0.637354      0.502165
  H       3.992593      1.056221      0.715787
  H      -0.657852     -2.249428     -2.842786
  H      -2.246738     -1.829705     -2.129634
  H      -1.505499     -0.772309     -3.353952
  H      -0.367811      1.956218      0.078862
  H       0.380643      0.453610      0.636875
  H      -0.783207      1.493920      2.479200
  H      -2.334266      1.498849      1.624062
  H      -1.576332     -0.050907      2.094385
  H      -2.775415      1.553849     -0.630541
  H      -2.783370      0.499285     -2.026713
  H      -3.585958     -0.324626      0.840724
  H      -3.525036     -1.444641     -0.536209
  H      -4.662755     -0.079880     -0.552642
32
Coordinates from ORCA-job opt E -1016.165152685863
  C       3.721731     -0.178838      2.472922
  C       3.752869      0.015266      0.975850
  O       2.458633     -0.319314      0.450847
  P       2.153562     -0.155478     -1.122241
  O       3.311361     -0.511315     -1.978546
  F       1.904661      1.438029     -1.232298
  N       0.760771     -0.865821     -1.412922
  C      -0.531046     -0.651125     -1.451041
  C      -1.294126     -1.429625     -2.494987
  N      -1.220215      0.185476     -0.662022
  C      -0.579688      0.929930      0.427512
  C      -1.379817      0.965080      1.720836
  C      -2.628450      0.509330     -0.940633
  C      -3.651667     -0.388552     -0.254445
  H       2.976330      0.483279      2.937642
  H       3.472553     -1.220158      2.724919
  H       4.707649      0.054996      2.900097
  H       4.506755     -0.630079      0.498827
  H       3.988377      1.061015      0.718131
  H      -0.658761     -2.250951     -2.841283
  H      -2.248080     -1.828262     -2.131000
  H      -1.502882     -0.772496     -3.354313
  H      -0.365963      1.954196      0.079708
  H       0.379556      0.450768      0.639241
  H      -0.785449      1.494096      2.479836
  H      -2.335147      1.500299      1.622413
  H      -1.580063     -0.050048      2.094805
  H      -2.774392      1.554433     -0.630814
  H      -2.782024      0.500279     -2.027348
  H      -3.588335     -0.322226      0.839413
  H      -3.525605     -1.443627     -0.536240
  H      -4.663100     -0.078557     -0.555594
32
Coordinates from ORCA-job opt E -1016.165152721841
  C       3.724906     -0.181169      2.472379
  C       3.752674      0.018866      0.976046
  O       2.458850     -0.318772      0.451828
  P       2.152924     -0.156826     -1.121165
  O       3.310460     -0.513425     -1.977504
  F       1.903379      1.436514     -1.233025
  N       0.760241     -0.867980     -1.410743
  C      -0.531402     -0.652179     -1.450084
  C      -1.294246     -1.430326     -2.494392
  N      -1.220431      0.184994     -0.661573
  C      -0.579833      0.929034      0.428189
  C      -1.381175      0.965952      1.720710
  C      -2.628204      0.509763     -0.941314
  C      -3.652459     -0.387386     -0.255633
  H       2.977486      0.475855      2.941054
  H       3.480631     -1.224528      2.720713
  H       4.710546      0.055263      2.898754
  H       4.508225     -0.621610      0.495142
  H       3.983391      1.066526      0.721821
  H      -0.659673     -2.253030     -2.838895
  H      -2.249399     -1.827196     -2.131654
  H      -1.500421     -0.773625     -3.354660
  H      -0.364365      1.952811      0.080037
  H       0.378586      0.448654      0.641018
  H      -0.787176      1.494998      2.479967
  H      -2.335866      1.502048      1.620886
  H      -1.582988     -0.048676      2.095166
  H      -2.773727      1.554964     -0.631654
  H      -2.780986      0.500692     -2.028136
  H      -3.590683     -0.319569      0.838230
  H      -3.525752     -1.442813     -0.535768
  H      -4.663511     -0.077822     -0.558469
32
Coordinates from ORCA-job opt E -1016.165150211507
  C       3.732759     -0.186727      2.470839
  C       3.752540      0.027106      0.976328
  O       2.459612     -0.317006      0.454003
  P       2.151442     -0.159210     -1.118784
  O       3.308441     -0.516690     -1.975559
  F       1.899792      1.433554     -1.234412
  N       0.759307     -0.872791     -1.405419
  C      -0.532065     -0.655100     -1.447314
  C      -1.294191     -1.433060     -2.492198
  N      -1.220873      0.183826     -0.660566
  C      -0.580629      0.926971      0.430008
  C      -1.384956      0.967423      1.720555
  C      -2.627453      0.511091     -0.943317
  C      -3.654666     -0.383647     -0.258834
  H       2.980945      0.458580      2.948664
  H       3.499627     -1.234620      2.710629
  H       4.717786      0.055544      2.895334
  H       4.511609     -0.602257      0.486415
  H       3.972670      1.079011      0.730406
  H      -0.661049     -2.258443     -2.832963
  H      -2.251672     -1.826524     -2.131946
  H      -1.495325     -0.777374     -3.354426
  H      -0.361329      1.949755      0.081392
  H       0.375909      0.443900      0.645467
  H      -0.791625      1.496009      2.480640
  H      -2.338104      1.505691      1.617801
  H      -1.590275     -0.046241      2.095706
  H      -2.771710      1.556767     -0.634665
  H      -2.778148      0.501488     -2.030415
  H      -3.596168     -0.313111      0.835049
  H      -3.527600     -1.439851     -0.535846
  H      -4.664600     -0.074062     -0.565299
32
Coordinates from ORCA-job opt E -1016.165155123347
  C       3.797984     -0.230366      2.455216
  C       3.749671      0.089187      0.980632
  O       2.464817     -0.304059      0.472536
  P       2.140129     -0.177129     -1.098376
  O       3.292891     -0.541306     -1.958602
  F       1.872814      1.410940     -1.242080
  N       0.752082     -0.908585     -1.362329
  C      -0.536997     -0.677006     -1.424801
  C      -1.292835     -1.454947     -2.473611
  N      -1.224834      0.175587     -0.652719
  C      -0.588787      0.912700      0.444380
  C      -1.416131      0.979701      1.719072
  C      -2.621842      0.521119     -0.959790
  C      -3.671970     -0.354648     -0.285124
  H       3.018001      0.319106      3.002578
  H       3.651764     -1.307290      2.624703
  H       4.776541      0.057050      2.866162
  H       4.530377     -0.449804      0.422008
  H       3.888001      1.168382      0.802963
  H      -0.670796     -2.300307     -2.785039
  H      -2.267470     -1.822356     -2.132696
  H      -1.455477     -0.808469     -3.350777
  H      -0.340883      1.927742      0.092794
  H       0.353187      0.410041      0.680314
  H      -0.828320      1.504752      2.485785
  H      -2.357178      1.534132      1.593727
  H      -1.647906     -0.026466      2.098895
  H      -2.756646      1.570620     -0.659902
  H      -2.755612      0.506366     -2.048986
  H      -3.638486     -0.263772      0.808391
  H      -3.543372     -1.416534     -0.538695
  H      -4.672718     -0.044382     -0.619356
32
Coordinates from ORCA-job opt E -1016.165166423523
  C       3.748772     -0.202456      2.467088
  C       3.749401      0.049005      0.978401
  O       2.460293     -0.312554      0.458218
  P       2.148378     -0.164845     -1.114302
  O       3.304388     -0.525260     -1.971460
  F       1.893071      1.426581     -1.239533
  N       0.757454     -0.883744     -1.394611
  C      -0.533392     -0.661887     -1.441605
  C      -1.294395     -1.440291     -2.486791
  N      -1.221250      0.181322     -0.658968
  C      -0.581393      0.922895      0.432938
  C      -1.391552      0.971920      1.719498
  C      -2.625358      0.513812     -0.947811
  C      -3.658847     -0.374812     -0.264652
  H       2.983931      0.409514      2.967572
  H       3.546543     -1.262003      2.682400
  H       4.730545      0.056647      2.889155
  H       4.518518     -0.549476      0.466000
  H       3.941201      1.111678      0.756285
  H      -0.665377     -2.272943     -2.817526
  H      -2.257745     -1.824422     -2.132234
  H      -1.482705     -0.788023     -3.354504
  H      -0.353453      1.943241      0.082890
  H       0.370811      0.433587      0.654062
  H      -0.798881      1.499546      2.480752
  H      -2.341124      1.515274      1.610813
  H      -1.604557     -0.039372      2.096769
  H      -2.766573      1.560900     -0.642474
  H      -2.772077      0.501928     -2.035402
  H      -3.607294     -0.297105      0.829118
  H      -3.530936     -1.433008     -0.533662
  H      -4.666395     -0.065650     -0.579150
32
Coordinates from ORCA-job opt E -1016.165164985690
  C       3.755286     -0.211071      2.465212
  C       3.746928      0.059297      0.979890
  O       2.460624     -0.312015      0.459586
  P       2.147290     -0.167043     -1.112694
  O       3.302880     -0.527928     -1.970315
  F       1.890487      1.423909     -1.240549
  N       0.756930     -0.888088     -1.391119
  C      -0.533801     -0.665007     -1.439238
  C      -1.294720     -1.444303     -2.483732
  N      -1.221144      0.180268     -0.658430
  C      -0.581369      0.921716      0.433602
  C      -1.393864      0.974875      1.718506
  C      -2.624198      0.514913     -0.949901
  C      -3.660280     -0.370797     -0.266833
  H       2.983114      0.382752      2.976189
  H       3.569706     -1.276178      2.667645
  H       4.734533      0.057542      2.887188
  H       4.521704     -0.522622      0.457049
  H       3.923796      1.127066      0.770238
  H      -0.667687     -2.280324     -2.809798
  H      -2.260489     -1.824044     -2.131106
  H      -1.477678     -0.794114     -3.354155
  H      -0.349935      1.940892      0.082520
  H       0.369034      0.429949      0.657277
  H      -0.801422      1.502503      2.479932
  H      -2.341979      1.520218      1.607162
  H      -1.609952     -0.035243      2.097160
  H      -2.764027      1.562729     -0.646393
  H      -2.769357      0.501637     -2.037680
  H      -3.611308     -0.289835      0.826837
  H      -3.532243     -1.429890     -0.532288
  H      -4.666859     -0.061761     -0.584487
32
Coordinates from ORCA-job opt E -1016.165170223592
  C       3.763851     -0.220469      2.462717
  C       3.743710      0.072420      0.981818
  O       2.460868     -0.311105      0.461744
  P       2.145858     -0.171045     -1.110399
  O       3.300877     -0.533598     -1.968192
  F       1.887429      1.419255     -1.243041
  N       0.755975     -0.894542     -1.385702
  C      -0.534406     -0.669022     -1.436166
  C      -1.295134     -1.448690     -2.480419
  N      -1.221063      0.178845     -0.657682
  C      -0.581361      0.919722      0.434781
  C      -1.396652      0.977441      1.717700
  C      -2.622675      0.516558     -0.952484
  C      -3.662326     -0.365385     -0.269872
  H       2.983047      0.350753      2.986193
  H       3.599094     -1.291826      2.649506
  H       4.739802      0.060160      2.884488
  H       4.525020     -0.488969      0.446402
  H       3.902011      1.145931      0.787284
  H      -0.670750     -2.288908     -2.800826
  H      -2.264089     -1.822795     -2.130596
  H      -1.471058     -0.800791     -3.353998
  H      -0.345672      1.937586      0.082815
  H       0.366860      0.424945      0.661279
  H      -0.804476      1.504610      2.479639
  H      -2.342858      1.525439      1.603285
  H      -1.616783     -0.031371      2.097493
  H      -2.760527      1.565221     -0.650980
  H      -2.765740      0.501844     -2.040508
  H      -3.616580     -0.280791      0.823670
  H      -3.534736     -1.425542     -0.531275
  H      -4.667513     -0.055881     -0.591398
32
Coordinates from ORCA-job opt E -1016.165156263703
  C       3.785950     -0.247300      2.455000
  C       3.730868      0.110192      0.989239
  O       2.460787     -0.311078      0.467228
  P       2.142912     -0.184251     -1.105076
  O       3.296614     -0.552774     -1.962293
  F       1.882041      1.404488     -1.251039
  N       0.753579     -0.912554     -1.372263
  C      -0.535768     -0.680256     -1.428252
  C      -1.296857     -1.461157     -2.471073
  N      -1.220155      0.175082     -0.656202
  C      -0.580347      0.915220      0.436690
  C      -1.401889      0.984640      1.714999
  C      -2.617918      0.521189     -0.959392
  C      -3.667056     -0.349878     -0.277136
  H       2.979042      0.252507      3.010978
  H       3.686548     -1.333778      2.594320
  H       4.748560      0.072060      2.879815
  H       4.531201     -0.387795      0.420149
  H       3.832878      1.197704      0.840510
  H      -0.680026     -2.312379     -2.776966
  H      -2.273853     -1.819837     -2.127743
  H      -1.454991     -0.819744     -3.352828
  H      -0.334576      1.929710      0.082063
  H       0.362620      0.413376      0.669888
  H      -0.809797      1.510706      2.477749
  H      -2.343277      1.539292      1.593294
  H      -1.631862     -0.020756      2.097978
  H      -2.749803      1.572331     -0.663821
  H      -2.755978      0.502076     -2.047972
  H      -3.628380     -0.256553      0.815978
  H      -3.542607     -1.412764     -0.528883
  H      -4.668461     -0.037718     -0.607667
32
Coordinates from ORCA-job opt E -1016.165177107398
  C       3.767349     -0.227935      2.461494
  C       3.740012      0.081576      0.984017
  O       2.460683     -0.311274      0.462681
  P       2.145866     -0.174534     -1.110018
  O       3.300778     -0.539299     -1.966966
  F       1.887826      1.415536     -1.246185
  N       0.755673     -0.898103     -1.383270
  C      -0.534472     -0.671280     -1.434661
  C      -1.295558     -1.451827     -2.477973
  N      -1.220733      0.178451     -0.657883
  C      -0.581068      0.920248      0.433975
  C      -1.396614      0.979497      1.716660
  C      -2.621807      0.517400     -0.953934
  C      -3.662969     -0.362150     -0.270575
  H       2.978318      0.325001      2.992231
  H       3.619820     -1.303797      2.636315
  H       4.739374      0.063491      2.884995
  H       4.527092     -0.464084      0.440765
  H       3.884548      1.159085      0.801244
  H      -0.672308     -2.293672     -2.796317
  H      -2.265549     -1.823333     -2.128304
  H      -1.469522     -0.805284     -3.352968
  H      -0.344980      1.937715      0.081121
  H       0.366947      0.425346      0.661005
  H      -0.804084      1.506751      2.478273
  H      -2.342388      1.528109      1.601618
  H      -1.617450     -0.028863      2.097240
  H      -2.758373      1.566755     -0.654250
  H      -2.764295      0.501169     -2.042020
  H      -3.617321     -0.276795      0.822896
  H      -3.537286     -1.422728     -0.531214
  H      -4.667513     -0.051172     -0.592718
32
Coordinates from ORCA-job opt E -1016.165180080695
  C       3.764859     -0.230699      2.462020
  C       3.738003      0.082503      0.985249
  O       2.460071     -0.311941      0.461952
  P       2.146664     -0.174402     -1.111124
  O       3.301832     -0.539692     -1.967440
  F       1.890007      1.415918     -1.246880
  N       0.756103     -0.896849     -1.385127
  C      -0.534163     -0.670802     -1.435448
  C      -1.295813     -1.452465     -2.477557
  N      -1.220385      0.179082     -0.658773
  C      -0.580430      0.922364      0.431911
  C      -1.394330      0.980966      1.715681
  C      -2.621985      0.516827     -0.953748
  C      -3.661973     -0.362860     -0.268850
  H       2.972993      0.317989      2.992967
  H       3.621226     -1.307541      2.633991
  H       4.735227      0.063456      2.887429
  H       4.526986     -0.459908      0.441458
  H       3.880176      1.160819      0.805359
  H      -0.672089     -2.293626     -2.796746
  H      -2.264896     -1.824799     -2.126221
  H      -1.471973     -0.806334     -3.352429
  H      -0.346376      1.940062      0.078329
  H       0.368606      0.429019      0.657908
  H      -0.801232      1.509016      2.476314
  H      -2.340874      1.528497      1.601808
  H      -1.613381     -0.027567      2.096848
  H      -2.758863      1.566367     -0.654833
  H      -2.765481      0.499637     -2.041697
  H      -3.614554     -0.278026      0.824578
  H      -3.536976     -1.423341     -0.530261
  H      -4.666976     -0.051671     -0.589392
32
Coordinates from ORCA-job opt E -1016.165182321174
  C       3.755827     -0.248748      2.464221
  C       3.728501      0.087264      0.992195
  O       2.456772     -0.313435      0.460006
  P       2.150772     -0.172829     -1.115242
  O       3.307424     -0.541406     -1.967799
  F       1.901278      1.418713     -1.249842
  N       0.758331     -0.889318     -1.392662
  C      -0.532537     -0.667870     -1.438607
  C      -1.296020     -1.456352     -2.474463
  N      -1.219558      0.183056     -0.663561
  C      -0.579221      0.935789      0.420427
  C      -1.384936      0.991325      1.709553
  C      -2.624052      0.513262     -0.953564
  C      -3.657317     -0.367518     -0.260316
  H       2.951134      0.277109      2.999082
  H       3.631890     -1.330581      2.619131
  H       4.718543      0.057549      2.898329
  H       4.525976     -0.437003      0.442762
  H       3.858480      1.169917      0.829742
  H      -0.668364     -2.292508     -2.798850
  H      -2.259219     -1.835130     -2.113797
  H      -1.485849     -0.812487     -3.348187
  H      -0.356975      1.954543      0.062090
  H       0.375622      0.452023      0.641685
  H      -0.789877      1.524980      2.464771
  H      -2.336051      1.531977      1.600886
  H      -1.593641     -0.017947      2.094613
  H      -2.763533      1.563792     -0.659326
  H      -2.772418      0.490180     -2.040796
  H      -3.600437     -0.285233      0.832801
  H      -3.535703     -1.427462     -0.525626
  H      -4.664843     -0.055650     -0.572380
32
Coordinates from ORCA-job opt E -1016.165190298939
  C       3.753987     -0.249597      2.465006
  C       3.729247      0.083714      0.992348
  O       2.455933     -0.311816      0.459959
  P       2.151233     -0.169815     -1.115432
  O       3.308412     -0.537991     -1.967431
  F       1.902397      1.421929     -1.248850
  N       0.758884     -0.885787     -1.394510
  C      -0.532246     -0.666119     -1.439514
  C      -1.295522     -1.455867     -2.474598
  N      -1.219903      0.184118     -0.664228
  C      -0.579835      0.938474      0.418790
  C      -1.384316      0.993124      1.708738
  C      -2.625167      0.511957     -0.953189
  C      -3.656440     -0.370394     -0.258979
  H       2.952614      0.282382      2.998797
  H       3.623115     -1.330314      2.622041
  H       4.718553      0.051356      2.898753
  H       4.524393     -0.445474      0.444285
  H       3.864777      1.165406      0.827959
  H      -0.666364     -2.290260     -2.800584
  H      -2.257051     -1.837327     -2.112245
  H      -1.488824     -0.812056     -3.347592
  H      -0.359822      1.957464      0.059708
  H       0.376089      0.456600      0.639429
  H      -0.789446      1.528193      2.463109
  H      -2.336517      1.532021      1.600835
  H      -1.590770     -0.016366      2.094438
  H      -2.766167      1.562299     -0.659016
  H      -2.774338      0.488390     -2.040309
  H      -3.598156     -0.288598      0.834106
  H      -3.533991     -1.430060     -0.525005
  H      -4.664759     -0.059586     -0.569544
32
Coordinates from ORCA-job opt E -1016.165186742204
  C       3.753055     -0.256330      2.465722
  C       3.729187      0.080818      0.994012
  O       2.453716     -0.307195      0.460938
  P       2.151954     -0.164367     -1.114945
  O       3.310391     -0.532703     -1.965180
  F       1.904319      1.427576     -1.248038
  N       0.759947     -0.879761     -1.396978
  C      -0.531669     -0.663454     -1.440573
  C      -1.294241     -1.456589     -2.473654
  N      -1.220719      0.186235     -0.665798
  C      -0.581467      0.944751      0.414774
  C      -1.383906      0.998970      1.706039
  C      -2.627391      0.509368     -0.953292
  C      -3.654926     -0.375187     -0.256348
  H       2.956230      0.279828      3.002126
  H       3.614745     -1.336482      2.620325
  H       4.720253      0.036681      2.899058
  H       4.521306     -0.450693      0.443887
  H       3.869922      1.162256      0.832238
  H      -0.662262     -2.288121     -2.801434
  H      -2.252790     -1.842598     -2.108163
  H      -1.493575     -0.813864     -3.346064
  H      -0.365632      1.963798      0.053276
  H       0.376427      0.466720      0.634984
  H      -0.789688      1.537615      2.458374
  H      -2.338206      1.534278      1.598805
  H      -1.586052     -0.010539      2.093957
  H      -2.771326      1.559635     -0.660302
  H      -2.777986      0.483754     -2.040168
  H      -3.594005     -0.293044      0.836572
  H      -3.530877     -1.434631     -0.522467
  H      -4.664733     -0.066724     -0.564410
32
Coordinates from ORCA-job opt E -1016.165190078333
  C       3.753716     -0.263853      2.465748
  C       3.728777      0.080553      0.995814
  O       2.452031     -0.302816      0.462082
  P       2.152452     -0.160428     -1.114207
  O       3.311887     -0.529367     -1.962859
  F       1.905518      1.431528     -1.248190
  N       0.760770     -0.875670     -1.398252
  C      -0.531202     -0.661773     -1.440975
  C      -1.293098     -1.457752     -2.472394
  N      -1.221426      0.187728     -0.666924
  C      -0.582995      0.949796      0.411616
  C      -1.384314      1.004695      1.703561
  C      -2.629065      0.507266     -0.953725
  C      -3.653953     -0.378505     -0.254400
  H       2.959407      0.271909      3.006255
  H       3.612463     -1.344342      2.615291
  H       4.722466      0.024079      2.899034
  H       4.519311     -0.449409      0.441976
  H       3.870879      1.162548      0.839046
  H      -0.659072     -2.287402     -2.800967
  H      -2.249557     -1.846863     -2.104677
  H      -1.496544     -0.816214     -3.344705
  H      -0.369868      1.968599      0.047807
  H       0.376154      0.474495      0.632127
  H      -0.790818      1.546583      2.454128
  H      -2.340142      1.537245      1.596179
  H      -1.583368     -0.004511      2.093857
  H      -2.775229      1.557624     -0.662177
  H      -2.780547      0.479590     -2.040420
  H      -3.591607     -0.294912      0.838334
  H      -3.528210     -1.438027     -0.519376
  H      -4.664817     -0.072393     -0.561335
32
Coordinates from ORCA-job opt E -1016.165186011955
  C       3.754179     -0.266841      2.465600
  C       3.728410      0.081456      0.996614
  O       2.451441     -0.300908      0.462550
  P       2.152542     -0.159545     -1.113914
  O       3.312370     -0.529103     -1.961790
  F       1.905645      1.432289     -1.249110
  N       0.760988     -0.874899     -1.398469
  C      -0.531063     -0.661462     -1.440991
  C      -1.292784     -1.458225     -2.471937
  N      -1.221596      0.188089     -0.667255
  C      -0.583421      0.951283      0.410628
  C      -1.384490      1.006679      1.702704
  C      -2.629476      0.506640     -0.953939
  C      -3.653623     -0.379315     -0.253748
  H       2.960126      0.267361      3.008017
  H       3.613154     -1.347753      2.612283
  H       4.723153      0.019942      2.899155
  H       4.518793     -0.446772      0.440932
  H       3.869899      1.163914      0.842546
  H      -0.658322     -2.287538     -2.800498
  H      -2.248797     -1.847941     -2.103695
  H      -1.497076     -0.817113     -3.344361
  H      -0.370948      1.969936      0.046010
  H       0.376025      0.476716      0.631387
  H      -0.791233      1.549688      2.452646
  H      -2.340764      1.538393      1.595136
  H      -1.582658     -0.002344      2.093930
  H      -2.776241      1.557078     -0.662986
  H      -2.781221      0.478206     -2.040567
  H      -3.591061     -0.294796      0.838906
  H      -3.527165     -1.438965     -0.517878
  H      -4.664789     -0.074148     -0.560632
