39
Coordinates from ORCA-job opt E -1074.869629789438
  C           2.01257736594479     -0.51719218870841      2.32421682164223
  C           2.22787088494370     -0.78345729552910      0.84076336605153
  N           0.97065369620792     -1.04294247456178      0.13893153710867
  C           0.85735796479173     -2.32096585169462     -0.56606102969876
  C           1.72493247450541     -2.36727266575144     -1.81866130837976
  C           0.12909270209086     -0.00205229037335     -0.10038573383042
  N           0.62446015289352      1.21833800228345     -0.06102595687954
  P          -0.06046775222166      2.59698406838246      0.44149066998758
  C           1.27611980408363      3.64145737621824      1.01879303255964
  O          -1.25156500412798      2.56173716906741      1.34655098215840
  F          -0.45550239747931      3.39436016967527     -0.92096773596570
  N          -1.17188057637690     -0.30877242176231     -0.39619370772781
  C          -1.90616521542287     -1.29685406311247      0.39747863675765
  C          -2.89854912490733     -0.65217471347447      1.35992463715002
  C          -1.96452697859327      0.56205991272708     -1.26359463329330
  C          -1.32915780159679      0.76989586608957     -2.63045020647701
  H           2.97587870165639     -0.34311492736010      2.82646893511822
  H           1.38346090651578      0.37231208110298      2.47740549736981
  H           1.52113076473183     -1.37520328642284      2.80790012952023
  H           2.86041388602845     -1.67238619089017      0.70979456214634
  H           2.74981148599927      0.06160313999326      0.36743797710167
  H          -0.18797436590809     -2.49191998576895     -0.84375244568058
  H           1.13425331317451     -3.12487407142729      0.13408528459889
  H           2.78888306854251     -2.20802577875219     -1.58702782974646
  H           1.62927791330196     -3.34763429319659     -2.30869333787033
  H           1.40918777883852     -1.59262024972960     -2.53464915628607
  H           2.06204383778388      3.71029408163083      0.25517759872278
  H           1.69785872998447      3.20464351583249      1.93481507530822
  H           0.88454539903099      4.64313350235539      1.24275100007777
  H          -1.17861846480320     -1.87981443187355      0.97533428044849
  H          -2.42255724161981     -1.99930753777107     -0.27930440483642
  H          -3.34919588259202     -1.42185136027755      2.00381409360750
  H          -2.38935527635813      0.08986241527523      1.99243360431650
  H          -3.71477932155658     -0.13947823757353      0.82934211903660
  H          -2.18411221374251      1.52439805925808     -0.77336241173605
  H          -2.93446283422831      0.06054400546758     -1.39331088219099
  H          -1.18822978944464     -0.19425160997532     -3.14233824605046
  H          -0.35369689488798      1.26924526368522     -2.55114800206274
  H          -1.97901369518272      1.40129731694216     -3.25398283207635
