39
Coordinates from ORCA-job opt E -1074.851191356100
  C       1.873916     -0.899856      2.430144
  C       2.185041     -0.970493      0.941938
  N       0.945149     -1.101186      0.164301
  C       0.927141     -2.215688     -0.791927
  C       1.776127     -1.902528     -2.015855
  C       0.101980     -0.003641      0.012632
  N       0.561509      1.172891      0.272376
  P      -0.148801      2.594560      0.293691
  C       1.074025      3.705097      0.996807
  O      -1.462835      2.741252      1.011228
  F      -0.358492      2.969917     -1.222397
  N      -1.176413     -0.363132     -0.368136
  C      -1.981268     -1.154401      0.579523
  C      -2.590241     -0.284498      1.666868
  C      -1.955125      0.382353     -1.360594
  C      -1.245928      0.412723     -2.705568
  H       2.801531     -0.848500      3.008686
  H       1.273195     -0.019075      2.677582
  H       1.316873     -1.785406      2.754169
  H       2.839668     -1.835011      0.776985
  H       2.755313     -0.090076      0.623471
  H      -0.090636     -2.459176     -1.114138
  H       1.305876     -3.123146     -0.306015
  H       2.825457     -1.748378     -1.744503
  H       1.730969     -2.731366     -2.729161
  H       1.428136     -0.997342     -2.521903
  H       2.006284      3.653342      0.427838
  H       1.281558      3.435881      2.035983
  H       0.707126      4.734485      0.967325
  H      -1.370361     -1.933889      1.049624
  H      -2.776595     -1.683947      0.041614
  H      -3.188370     -0.896908      2.348966
  H      -1.813484      0.213926      2.255419
  H      -3.243635      0.484442      1.243129
  H      -2.182734      1.393041     -1.018961
  H      -2.925804     -0.104312     -1.517612
  H      -1.078419     -0.602649     -3.079901
  H      -0.274351      0.911429     -2.642501
  H      -1.853385      0.949266     -3.441131
39
Coordinates from ORCA-job opt E -1074.861796555575
  C       1.873255     -0.725859      2.425648
  C       2.157171     -0.898385      0.937829
  N       0.924609     -1.081471      0.174332
  C       0.872160     -2.249570     -0.704271
  C       1.708622     -2.059881     -1.966231
  C       0.099025     -0.004503     -0.019276
  N       0.568820      1.181008      0.246130
  P      -0.094489      2.648436      0.264003
  C       1.143304      3.711124      1.006978
  O      -1.443378      2.856350      0.890547
  F      -0.162499      3.090001     -1.262055
  N      -1.177558     -0.365840     -0.410592
  C      -1.936174     -1.252873      0.479480
  C      -2.583929     -0.522851      1.650779
  C      -1.964679      0.434752     -1.345601
  C      -1.273275      0.581257     -2.695073
  H       2.814413     -0.640487      2.988869
  H       1.278520      0.178549      2.620584
  H       1.315169     -1.589502      2.816959
  H       2.796520     -1.781026      0.802131
  H       2.725818     -0.038039      0.550566
  H      -0.165651     -2.476061     -0.979984
  H       1.232063     -3.125801     -0.144611
  H       2.772664     -1.913224     -1.726652
  H       1.627133     -2.945393     -2.613758
  H       1.368063     -1.185176     -2.539253
  H       2.103860      3.622860      0.480120
  H       1.283493      3.419237      2.055371
  H       0.811674      4.757839      0.970709
  H      -1.272244     -2.040544      0.865649
  H      -2.706080     -1.769631     -0.112982
  H      -3.146279     -1.233283      2.276039
  H      -1.826399     -0.037513      2.282440
  H      -3.281768      0.252411      1.304961
  H      -2.218918      1.421451     -0.926871
  H      -2.923373     -0.077033     -1.507500
  H      -1.087967     -0.404707     -3.146559
  H      -0.308656      1.101081     -2.604517
  H      -1.903040      1.162297     -3.384335
39
Coordinates from ORCA-job opt E -1074.865784829624
  C       1.940915     -0.657982      2.402941
  C       2.172064     -0.852879      0.908329
  N       0.936917     -1.085812      0.169725
  C       0.878380     -2.285013     -0.661354
  C       1.696068     -2.158225     -1.943572
  C       0.095027     -0.038956     -0.028338
  N       0.548878      1.164033      0.232634
  P      -0.137831      2.636961      0.343296
  C       1.123596      3.698118      1.039317
  O      -1.476587      2.817969      0.991771
  F      -0.204526      3.178393     -1.170341
  N      -1.183209     -0.377404     -0.433946
  C      -1.960212     -1.260742      0.434085
  C      -2.625420     -0.540482      1.604185
  C      -1.923394      0.485142     -1.345472
  C      -1.260210      0.598531     -2.713193
  H       2.901771     -0.540166      2.930010
  H       1.333268      0.239281      2.598697
  H       1.418097     -1.529756      2.830190
  H       2.812609     -1.732247      0.748831
  H       2.706761      0.013970      0.484370
  H      -0.167202     -2.509454     -0.902978
  H       1.243971     -3.129340     -0.054379
  H       2.765145     -1.991874     -1.729822
  H       1.610232     -3.079263     -2.542690
  H       1.332949     -1.316493     -2.557322
  H       2.063814      3.631925      0.471322
  H       1.301755      3.370512      2.074188
  H       0.770530      4.740398      1.048314
  H      -1.301722     -2.055016      0.813859
  H      -2.718610     -1.759204     -0.192324
  H      -3.205129     -1.255689      2.210485
  H      -1.871875     -0.067031      2.256421
  H      -3.312813      0.248349      1.256331
  H      -2.106546      1.486519     -0.907666
  H      -2.913716      0.021450     -1.465199
  H      -1.167351     -0.394651     -3.183092
  H      -0.255654      1.042681     -2.643072
  H      -1.860742      1.243447     -3.374543
39
Coordinates from ORCA-job opt E -1074.866639543470
  C       2.004118     -0.615676      2.384265
  C       2.199075     -0.832747      0.889747
  N       0.944891     -1.076429      0.179877
  C       0.852046     -2.315627     -0.592109
  C       1.663362     -2.266528     -1.880845
  C       0.092210     -0.037797     -0.026348
  N       0.543560      1.175260      0.189187
  P      -0.150987      2.643728      0.322347
  C       1.116996      3.708968      0.999436
  O      -1.489064      2.813979      0.970181
  F      -0.214038      3.205074     -1.194412
  N      -1.182773     -0.374079     -0.446880
  C      -1.955927     -1.305048      0.376280
  C      -2.658528     -0.635811      1.552396
  C      -1.925577      0.532365     -1.314958
  C      -1.240496      0.745006     -2.656943
  H       2.976896     -0.486867      2.881799
  H       1.400586      0.282490      2.578220
  H       1.497070     -1.481085      2.838837
  H       2.829575     -1.718248      0.724887
  H       2.722042      0.025225      0.439867
  H      -0.199397     -2.521448     -0.818601
  H       1.200324     -3.135826      0.055065
  H       2.733532     -2.100930     -1.682433
  H       1.563668     -3.216244     -2.427247
  H       1.303957     -1.456710     -2.535337
  H       2.046685      3.643292      0.419498
  H       1.309229      3.382597      2.031949
  H       0.756266      4.746484      1.011681
  H      -1.286609     -2.093785      0.744662
  H      -2.689052     -1.798925     -0.281940
  H      -3.230937     -1.380225      2.126091
  H      -1.928521     -0.164645      2.230031
  H      -3.357027      0.145538      1.214842
  H      -2.135476      1.496742     -0.820797
  H      -2.904458      0.056653     -1.475020
  H      -1.121409     -0.211949     -3.188072
  H      -0.246718      1.201082     -2.534795
  H      -1.839095      1.422145     -3.284410
39
Coordinates from ORCA-job opt E -1074.867818476022
  C       2.024902     -0.593745      2.350859
  C       2.213071     -0.791631      0.855202
  N       0.952517     -1.046479      0.152863
  C       0.858437     -2.309408     -0.587364
  C       1.703146     -2.299398     -1.852903
  C       0.083688     -0.018821     -0.051815
  N       0.536853      1.199293      0.132515
  P      -0.140347      2.656311      0.394832
  C       1.172315      3.674122      1.061620
  O      -1.446181      2.791388      1.108325
  F      -0.260868      3.322809     -1.085889
  N      -1.195446     -0.368414     -0.454114
  C      -1.962741     -1.296469      0.383889
  C      -2.718668     -0.600907      1.508034
  C      -1.955544      0.513598     -1.337337
  C      -1.283265      0.694126     -2.688071
  H       2.998757     -0.448655      2.837923
  H       1.405627      0.289721      2.555235
  H       1.542121     -1.472426      2.802740
  H       2.852202     -1.667085      0.673560
  H       2.714696      0.078811      0.409824
  H      -0.186912     -2.503543     -0.841508
  H       1.176811     -3.115694      0.090342
  H       2.765745     -2.125033     -1.632650
  H       1.618721     -3.265572     -2.369012
  H       1.358420     -1.513386     -2.540386
  H       2.064378      3.632156      0.427453
  H       1.419649      3.292853      2.062653
  H       0.817335      4.708295      1.148307
  H      -1.281663     -2.044501      0.806962
  H      -2.659830     -1.840202     -0.273060
  H      -3.280242     -1.337202      2.099995
  H      -2.024017     -0.075221      2.179292
  H      -3.432504      0.137927      1.117647
  H      -2.173292      1.482298     -0.868507
  H      -2.931359      0.024200     -1.473335
  H      -1.167508     -0.273616     -3.196502
  H      -0.290913      1.155062     -2.582622
  H      -1.888089      1.354439     -3.324996
39
Coordinates from ORCA-job opt E -1074.868541888703
  C       1.993238     -0.604708      2.337277
  C       2.213416     -0.788957      0.843826
  N       0.964564     -1.047553      0.123337
  C       0.880624     -2.320531     -0.601923
  C       1.767360     -2.331769     -1.839582
  C       0.096440     -0.022596     -0.089253
  N       0.547415      1.197654      0.066387
  P      -0.139255      2.629465      0.395535
  C       1.173079      3.650585      1.062129
  O      -1.429131      2.713070      1.144042
  F      -0.320372      3.336119     -1.062866
  N      -1.188618     -0.368797     -0.459116
  C      -1.952138     -1.280551      0.401643
  C      -2.725557     -0.554927      1.494871
  C      -1.966322      0.525420     -1.315854
  C      -1.323846      0.715027     -2.680408
  H       2.956363     -0.447782      2.843809
  H       1.356168      0.268804      2.535417
  H       1.515053     -1.493235      2.775300
  H       2.866038     -1.654865      0.667108
  H       2.710410      0.092182      0.413308
  H      -0.156468     -2.506248     -0.894132
  H       1.165923     -3.123871      0.094583
  H       2.823220     -2.155935     -1.588022
  H       1.697533     -3.306507     -2.343460
  H       1.447264     -1.555010     -2.549798
  H       2.046370      3.640134      0.399365
  H       1.458684      3.250554      2.045262
  H       0.802044      4.676437      1.185109
  H      -1.264826     -2.002493      0.859037
  H      -2.636554     -1.858879     -0.239513
  H      -3.276748     -1.277865      2.113858
  H      -2.043022      0.009794      2.146639
  H      -3.452347      0.154368      1.073331
  H      -2.164880      1.492971     -0.830528
  H      -2.949337      0.046129     -1.435382
  H      -1.225344     -0.248704     -3.200766
  H      -0.326676      1.169063     -2.592199
  H      -1.939763      1.384004     -3.298371
39
Coordinates from ORCA-job opt E -1074.868998205207
  C       1.991356     -0.572277      2.320488
  C       2.221255     -0.768330      0.828658
  N       0.972681     -1.031616      0.112402
  C       0.867956     -2.319887     -0.578467
  C       1.751895     -2.375581     -1.819206
  C       0.107606     -0.008529     -0.101022
  N       0.559403      1.215402      0.017518
  P      -0.120065      2.617393      0.442201
  C       1.212831      3.647302      1.055892
  O      -1.358631      2.646102      1.276890
  F      -0.424111      3.363407     -0.977150
  N      -1.174687     -0.357835     -0.457054
  C      -1.930436     -1.288584      0.389378
  C      -2.772387     -0.580876      1.444465
  C      -1.963424      0.532095     -1.308732
  C      -1.320060      0.739775     -2.671943
  H       2.950458     -0.399420      2.832239
  H       1.342856      0.297236      2.506449
  H       1.518824     -1.461159      2.765632
  H       2.880189     -1.630800      0.660709
  H       2.713555      0.113510      0.392567
  H      -0.173451     -2.490333     -0.871621
  H       1.135375     -3.114939      0.135710
  H       2.811747     -2.205115     -1.577284
  H       1.669290     -3.363697     -2.296800
  H       1.438068     -1.613200     -2.549173
  H       2.037162      3.671715      0.331047
  H       1.577553      3.231611      2.005562
  H       0.830742      4.662956      1.230244
  H      -1.225785     -1.968367      0.885344
  H      -2.565981     -1.911501     -0.261616
  H      -3.299371     -1.319925      2.067084
  H      -2.139734      0.038623      2.097552
  H      -3.528823      0.075421      0.988060
  H      -2.171493      1.495644     -0.812887
  H      -2.941435      0.044663     -1.436772
  H      -1.203752     -0.220400     -3.197232
  H      -0.330863      1.209584     -2.578722
  H      -1.946314      1.399928     -3.290411
39
Coordinates from ORCA-job opt E -1074.869215499351
  C       1.992910     -0.568195      2.318229
  C       2.222711     -0.759968      0.824890
  N       0.976255     -1.030137      0.108417
  C       0.871186     -2.322076     -0.571783
  C       1.755948     -2.389970     -1.811978
  C       0.111886     -0.007127     -0.109277
  N       0.570529      1.219636     -0.021653
  P      -0.103887      2.614743      0.426924
  C       1.227154      3.638573      1.053829
  O      -1.340960      2.629487      1.265716
  F      -0.412503      3.387528     -0.976205
  N      -1.175523     -0.351310     -0.449060
  C      -1.924837     -1.289770      0.392659
  C      -2.799552     -0.592091      1.428133
  C      -1.969774      0.537868     -1.295402
  C      -1.331788      0.759047     -2.659334
  H       2.949001     -0.383714      2.831449
  H       1.333283      0.292476      2.505616
  H       1.530679     -1.463261      2.762235
  H       2.889757     -1.615935      0.654361
  H       2.708044      0.126671      0.390849
  H      -0.169576     -2.491706     -0.866235
  H       1.134967     -3.113555      0.147717
  H       2.816454     -2.219541     -1.571930
  H       1.671752     -3.381397     -2.282100
  H       1.443686     -1.632084     -2.547457
  H       2.048973      3.674090      0.326299
  H       1.596124      3.211129      1.996573
  H       0.845409      4.651806      1.241869
  H      -1.210878     -1.944640      0.908110
  H      -2.535672     -1.936155     -0.259918
  H      -3.307357     -1.338611      2.057547
  H      -2.193197      0.060385      2.074064
  H      -3.574412      0.030465      0.955301
  H      -2.181095      1.496899     -0.792487
  H      -2.944763      0.045590     -1.426016
  H      -1.204445     -0.198259     -3.187701
  H      -0.348351      1.241041     -2.567219
  H      -1.968138      1.412069     -3.275030
39
Coordinates from ORCA-job opt E -1074.869425071330
  C       1.996156     -0.556744      2.318169
  C       2.225465     -0.754512      0.825056
  N       0.980640     -1.029099      0.108352
  C       0.868977     -2.325793     -0.557370
  C       1.749368     -2.413086     -1.799676
  C       0.122364     -0.002203     -0.121566
  N       0.591478      1.226184     -0.062638
  P      -0.082926      2.606662      0.428371
  C       1.247474      3.639653      1.039472
  O      -1.297688      2.591663      1.302392
  F      -0.437180      3.405146     -0.945635
  N      -1.172735     -0.332673     -0.438127
  C      -1.911748     -1.291234      0.387087
  C      -2.835081     -0.619158      1.397363
  C      -1.971341      0.554333     -1.281985
  C      -1.342020      0.787380     -2.648163
  H       2.948823     -0.363085      2.833409
  H       1.329833      0.299577      2.501729
  H       1.538191     -1.452545      2.765284
  H       2.896263     -1.608603      0.657578
  H       2.710341      0.130838      0.388683
  H      -0.173038     -2.494329     -0.846925
  H       1.130709     -3.112287      0.168082
  H       2.812143     -2.248926     -1.565246
  H       1.655828     -3.407559     -2.260653
  H       1.441066     -1.658916     -2.540416
  H       2.049852      3.699386      0.292051
  H       1.646744      3.202085      1.965067
  H       0.859916      4.645290      1.252357
  H      -1.186621     -1.913648      0.926256
  H      -2.485512     -1.963832     -0.273249
  H      -3.314033     -1.380686      2.030703
  H      -2.269058      0.074152      2.037122
  H      -3.633950     -0.044303      0.904725
  H      -2.185758      1.508763     -0.773139
  H      -2.942735      0.056147     -1.414821
  H      -1.200663     -0.168039     -3.176490
  H      -0.366660      1.286148     -2.561789
  H      -1.992884      1.427854     -3.261421
39
Coordinates from ORCA-job opt E -1074.869501145551
  C       2.005207     -0.555666      2.322704
  C       2.229349     -0.750683      0.828812
  N       0.982625     -1.025919      0.116070
  C       0.866789     -2.322585     -0.548083
  C       1.742889     -2.413922     -1.792866
  C       0.127995      0.003360     -0.118052
  N       0.608988      1.231013     -0.091144
  P      -0.058902      2.600196      0.442949
  C       1.281837      3.645773      1.007043
  O      -1.233399      2.559315      1.371687
  F      -0.480769      3.413744     -0.900048
  N      -1.172071     -0.314307     -0.414649
  C      -1.904312     -1.293787      0.390643
  C      -2.894834     -0.647513      1.353549
  C      -1.971874      0.565655     -1.265028
  C      -1.345230      0.801044     -2.631746
  H       2.957614     -0.358293      2.836500
  H       1.335114      0.297169      2.509974
  H       1.551486     -1.453740      2.769658
  H       2.901214     -1.603219      0.656580
  H       2.712271      0.135555      0.392578
  H      -0.176531     -2.491792     -0.832646
  H       1.130473     -3.109043      0.176717
  H       2.806991     -2.254519     -1.561438
  H       1.643503     -3.407694     -2.253871
  H       1.435989     -1.658046     -2.532358
  H       2.050870      3.726225      0.227128
  H       1.726422      3.203421      1.909495
  H       0.891870      4.644157      1.246920
  H      -1.175419     -1.873949      0.969448
  H      -2.424699     -1.999702     -0.279575
  H      -3.346670     -1.418917      1.994438
  H      -2.386498      0.095709      1.985263
  H      -3.711613     -0.135319      0.822951
  H      -2.192961      1.518765     -0.757490
  H      -2.939030      0.060065     -1.399937
  H      -1.189188     -0.155269     -3.154227
  H      -0.378035      1.315948     -2.550168
  H      -2.007464      1.426768     -3.247778
39
Coordinates from ORCA-job opt E -1074.869576639071
  C       2.009443     -0.553962      2.321851
  C       2.232133     -0.760097      0.829798
  N       0.982287     -1.027807      0.119054
  C       0.862058     -2.321947     -0.551618
  C       1.731844     -2.406840     -1.800800
  C       0.132141      0.005296     -0.116946
  N       0.615952      1.230791     -0.077061
  P      -0.066064      2.601849      0.439650
  C       1.265572      3.648200      1.023892
  O      -1.254362      2.559774      1.350244
  F      -0.466681      3.409618     -0.912473
  N      -1.167964     -0.309355     -0.413898
  C      -1.899379     -1.288824      0.392775
  C      -2.881667     -0.638780      1.361755
  C      -1.966248      0.565740     -1.271491
  C      -1.340874      0.785412     -2.641091
  H       2.964708     -0.366099      2.833878
  H       1.350507      0.308468      2.504525
  H       1.544598     -1.443589      2.773917
  H       2.894370     -1.621109      0.663163
  H       2.724621      0.118025      0.387858
  H      -0.183224     -2.491652     -0.829475
  H       1.130944     -3.111046      0.168361
  H       2.796906     -2.250839     -1.572305
  H       1.628532     -3.397728     -2.267113
  H       1.423400     -1.646555     -2.534992
  H       2.048483      3.730296      0.258314
  H       1.694067      3.204889      1.933614
  H       0.870627      4.645864      1.258533
  H      -1.169713     -1.873035      0.966706
  H      -2.425878     -1.991472     -0.275899
  H      -3.331153     -1.407848      2.006916
  H      -2.366401      0.102493      1.990156
  H      -3.699966     -0.124246      0.836239
  H      -2.184704      1.524212     -0.773233
  H      -2.935227      0.062133     -1.400303
  H      -1.191038     -0.175999     -3.155638
  H      -0.371066      1.296115     -2.566704
  H      -2.001584      1.409653     -3.260159
39
Coordinates from ORCA-job opt E -1074.869605013721
  C       2.013773     -0.553993      2.321837
  C       2.232445     -0.767630      0.830651
  N       0.979058     -1.030924      0.123924
  C       0.860140     -2.320770     -0.557793
  C       1.726109     -2.391406     -1.810186
  C       0.130041      0.003685     -0.109497
  N       0.616868      1.227224     -0.063744
  P      -0.071543      2.602913      0.438968
  C       1.259556      3.649464      1.024960
  O      -1.265023      2.564878      1.341651
  F      -0.462203      3.401826     -0.922184
  N      -1.169659     -0.309794     -0.407736
  C      -1.903170     -1.288238      0.399092
  C      -2.883053     -0.632888      1.367129
  C      -1.963931      0.560956     -1.273381
  C      -1.327718      0.773368     -2.638814
  H       2.972741     -0.373159      2.829889
  H       1.363624      0.315439      2.502572
  H       1.542400     -1.437617      2.778774
  H       2.886987     -1.634739      0.666101
  H       2.729851      0.105251      0.383386
  H      -0.185704     -2.493333     -0.831642
  H       1.135629     -3.113429      0.155795
  H       2.791034     -2.233320     -1.582552
  H       1.625180     -3.379059     -2.284203
  H       1.412716     -1.626897     -2.537942
  H       2.048189      3.727830      0.265018
  H       1.680408      3.208212      1.939306
  H       0.863398      4.648062      1.254439
  H      -1.174813     -1.873641      0.973459
  H      -2.430783     -1.990351     -0.269282
  H      -3.333097     -1.397835      2.017055
  H      -2.364637      0.108835      1.992445
  H      -3.700455     -0.117826      0.840755
  H      -2.186477      1.521767     -0.781517
  H      -2.932193      0.056599     -1.405139
  H      -1.179799     -0.189656     -3.150796
  H      -0.355406      1.278843     -2.558097
  H      -1.980484      1.401353     -3.262702
39
Coordinates from ORCA-job opt E -1074.869615325621
  C       2.018353     -0.545549      2.320553
  C       2.234635     -0.770792      0.830703
  N       0.978837     -1.031867      0.126918
  C       0.858215     -2.320472     -0.557409
  C       1.720754     -2.387890     -1.812348
  C       0.131854      0.004638     -0.107332
  N       0.621896      1.227145     -0.063872
  P      -0.068445      2.601532      0.442625
  C       1.263730      3.648282      1.026373
  O      -1.258994      2.558447      1.348269
  F      -0.465045      3.402078     -0.916402
  N      -1.168603     -0.306650     -0.402216
  C      -1.901264     -1.288785      0.400651
  C      -2.893906     -0.636853      1.358061
  C      -1.963327      0.561066     -1.270749
  C      -1.326461      0.771055     -2.636408
  H       2.979218     -0.367274      2.826068
  H       1.374078      0.329261      2.495786
  H       1.542097     -1.422972      2.784250
  H       2.883369     -1.643251      0.671828
  H       2.736964      0.095972      0.376900
  H      -0.188497     -2.493208     -0.828118
  H       1.136119     -3.114105      0.154090
  H       2.786077     -2.229393     -1.586845
  H       1.619475     -3.374827     -2.287872
  H       1.404912     -1.622581     -2.538182
  H       2.050221      3.729000      0.264544
  H       1.687260      3.205600      1.938780
  H       0.866636      4.645795      1.259225
  H      -1.172743     -1.865806      0.983274
  H      -2.417572     -1.997766     -0.269394
  H      -3.339363     -1.401044      2.012070
  H      -2.386297      0.115061      1.979986
  H      -3.713694     -0.134389      0.823222
  H      -2.187689      1.522700     -0.781140
  H      -2.931100      0.055551     -1.401753
  H      -1.180078     -0.192549     -3.147680
  H      -0.353475      1.275007     -2.555760
  H      -1.978147      1.399833     -3.260699
39
Coordinates from ORCA-job opt E -1074.869620003874
  C       2.018327     -0.541950      2.321917
  C       2.234049     -0.774736      0.832960
  N       0.977732     -1.034608      0.129471
  C       0.858241     -2.320666     -0.559615
  C       1.720497     -2.382795     -1.815146
  C       0.132106      0.003238     -0.104542
  N       0.623788      1.225171     -0.061519
  P      -0.067005      2.600020      0.444242
  C       1.265951      3.648773      1.022677
  O      -1.255653      2.557368      1.351906
  F      -0.468079      3.397426     -0.915933
  N      -1.168691     -0.306965     -0.399389
  C      -1.902188     -1.289724      0.401753
  C      -2.898188     -0.638915      1.356446
  C      -1.962787      0.560577     -1.268771
  C      -1.324941      0.771077     -2.634104
  H       2.979946     -0.365097      2.826577
  H       1.377518      0.336096      2.493087
  H       1.538872     -1.415583      2.789488
  H       2.879279     -1.650644      0.678871
  H       2.740335      0.088037      0.375644
  H      -0.188458     -2.493205     -0.830692
  H       1.136856     -3.116502      0.149080
  H       2.785678     -2.223349     -1.589355
  H       1.620754     -3.368388     -2.293856
  H       1.403264     -1.615689     -2.538514
  H       2.050540      3.727561      0.258662
  H       1.691555      3.208564      1.935312
  H       0.868711      4.646619      1.254036
  H      -1.174010     -1.865179      0.986499
  H      -2.415228     -2.000176     -0.269326
  H      -3.343200     -1.402633      2.011329
  H      -2.393021      0.115151      1.977814
  H      -3.718061     -0.138786      0.819523
  H      -2.187909      1.522209     -0.779268
  H      -2.930445      0.055087     -1.400487
  H      -1.179736     -0.192224     -3.146363
  H      -0.351244      1.273415     -2.552019
  H      -1.975155      1.401423     -3.258397
39
Coordinates from ORCA-job opt E -1074.869622909272
  C       2.018151     -0.533842      2.321566
  C       2.233173     -0.777311      0.834112
  N       0.976336     -1.037087      0.131398
  C       0.857939     -2.321235     -0.561138
  C       1.720626     -2.379737     -1.816614
  C       0.131952      0.001796     -0.103432
  N       0.624730      1.223306     -0.061632
  P      -0.065131      2.598495      0.444690
  C       1.268662      3.646120      1.023020
  O      -1.254389      2.556828      1.351284
  F      -0.465665      3.396990     -0.915768
  N      -1.169127     -0.307664     -0.398070
  C      -1.902912     -1.291231      0.401657
  C      -2.900713     -0.641885      1.355321
  C      -1.963128      0.560232     -1.267130
  C      -1.325317      0.771715     -2.632368
  H       2.980445     -0.357337      2.824964
  H       1.380770      0.347711      2.486903
  H       1.535557     -1.402709      2.794716
  H       2.874610     -1.657215      0.686984
  H       2.743969      0.080172      0.371685
  H      -0.188602     -2.493214     -0.833378
  H       1.136361     -3.118875      0.145529
  H       2.785547     -2.219241     -1.590292
  H       1.622499     -3.364439     -2.297429
  H       1.402514     -1.611498     -2.538386
  H       2.053161      3.722399      0.258681
  H       1.693454      3.206545      1.936316
  H       0.872587      4.644708      1.252980
  H      -1.174811     -1.865923      0.987288
  H      -2.413956     -2.002337     -0.270288
  H      -3.345396     -1.405737      2.010168
  H      -2.396867      0.113023      1.976768
  H      -3.720750     -0.142672      0.817816
  H      -2.188431      1.521563     -0.777204
  H      -2.930749      0.054810     -1.399240
  H      -1.181133     -0.191203     -3.145656
  H      -0.351128      1.272949     -2.549502
  H      -1.974838      1.403032     -3.256322
39
Coordinates from ORCA-job opt E -1074.869637890014
  C       2.016846     -0.527748      2.322152
  C       2.231663     -0.780410      0.836164
  N       0.974628     -1.039779      0.133754
  C       0.857645     -2.321572     -0.563178
  C       1.721563     -2.375806     -1.818030
  C       0.131553      0.000163     -0.102131
  N       0.625356      1.221231     -0.060780
  P      -0.063827      2.597197      0.444218
  C       1.270194      3.644599      1.022091
  O      -1.254010      2.557490      1.349750
  F      -0.463041      3.395155     -0.917201
  N      -1.169678     -0.308221     -0.397258
  C      -1.903794     -1.292641      0.400992
  C      -2.900634     -0.644544      1.356429
  C      -1.963118      0.560554     -1.265865
  C      -1.325809      0.771875     -2.631354
  H       2.979597     -0.352113      2.824909
  H       1.382768      0.357027      2.482513
  H       1.530872     -1.392316      2.799693
  H       2.869499     -1.664016      0.695475
  H       2.747116      0.072119      0.369531
  H      -0.188569     -2.492952     -0.837149
  H       1.135582     -3.121559      0.140994
  H       2.786187     -2.215223     -1.590330
  H       1.624612     -3.359074     -2.301962
  H       1.403656     -1.605456     -2.537656
  H       2.055065      3.717992      0.257843
  H       1.693912      3.206569      1.936622
  H       0.875201      4.644176      1.249441
  H      -1.175819     -1.868899      0.985228
  H      -2.415539     -2.002218     -0.272026
  H      -3.345794     -1.409412      2.009726
  H      -2.395824      0.108527      1.979365
  H      -3.720476     -0.143248      0.820555
  H      -2.187397      1.521952     -0.775671
  H      -2.931157      0.055933     -1.397933
  H      -1.182557     -0.191129     -3.144779
  H      -0.351231      1.272428     -2.548936
  H      -1.975243      1.403351     -3.255204
39
Coordinates from ORCA-job opt E -1074.869628410483
  C       2.015201     -0.521731      2.322623
  C       2.229958     -0.782626      0.838073
  N       0.972738     -1.041841      0.136052
  C       0.857303     -2.321613     -0.564934
  C       1.723039     -2.372038     -1.818691
  C       0.130575     -0.001240     -0.101198
  N       0.625113      1.219471     -0.060316
  P      -0.062626      2.596581      0.443095
  C       1.272034      3.642736      1.021562
  O      -1.254198      2.559342      1.347138
  F      -0.458845      3.394459     -0.919264
  N      -1.170608     -0.308825     -0.396996
  C      -1.904893     -1.294450      0.399616
  C      -2.899343     -0.647555      1.358324
  C      -1.963584      0.561025     -1.264891
  C      -1.326974      0.771483     -2.630788
  H       2.978361     -0.347002      2.824869
  H       1.384159      0.365929      2.478619
  H       1.526059     -1.382359      2.804001
  H       2.864542     -1.669510      0.703222
  H       2.749500      0.065363      0.367518
  H      -0.188480     -2.492464     -0.840923
  H       1.134475     -3.123723      0.137126
  H       2.787307     -2.211822     -1.589121
  H       1.626992     -3.353917     -2.305571
  H       1.406040     -1.599605     -2.536496
  H       2.057885      3.713200      0.258042
  H       1.693959      3.205708      1.937395
  H       0.878650      4.643490      1.246373
  H      -1.177090     -1.873655      0.981064
  H      -2.418852     -2.001080     -0.274758
  H      -3.346078     -1.414127      2.008538
  H      -2.392332      0.101514      1.984290
  H      -3.718268     -0.141896      0.825140
  H      -2.186173      1.522631     -0.774467
  H      -2.932283      0.057543     -1.396445
  H      -1.184613     -0.191828     -3.143887
  H      -0.352061      1.271553     -2.549412
  H      -1.976588      1.402879     -3.254522
39
Coordinates from ORCA-job opt E -1074.869629039100
  C       2.013821     -0.519261      2.323443
  C       2.228759     -0.783328      0.839517
  N       0.971530     -1.042604      0.137636
  C       0.857222     -2.321297     -0.565716
  C       1.724139     -2.369415     -1.818724
  C       0.129747     -0.001804     -0.100709
  N       0.624717      1.218730     -0.060496
  P      -0.061653      2.596677      0.442125
  C       1.273814      3.642028      1.020237
  O      -1.253348      2.560775      1.346295
  F      -0.456739      3.394236     -0.920479
  N      -1.171311     -0.308895     -0.396705
  C      -1.905605     -1.295698      0.398500
  C      -2.898521     -0.649835      1.359549
  C      -1.964023      0.561566     -1.264283
  C      -1.328001      0.770747     -2.630626
  H       2.977102     -0.344987      2.825629
  H       1.383981      0.369517      2.477853
  H       1.523301     -1.378339      2.806182
  H       2.862043     -1.671508      0.707024
  H       2.749902      0.062841      0.367346
  H      -0.188283     -2.492048     -0.842836
  H       1.134057     -3.124559      0.135184
  H       2.788212     -2.209797     -1.587886
  H       1.628326     -3.350391     -2.307468
  H       1.407982     -1.595616     -2.535446
  H       2.059925      3.711251      0.256856
  H       1.695315      3.205380      1.936446
  H       0.881458      4.643404      1.244084
  H      -1.177938     -1.877128      0.977810
  H      -2.421224     -1.999943     -0.277049
  H      -3.347050     -1.418017      2.006656
  H      -2.390046      0.095588      1.988663
  H      -3.716262     -0.140439      0.828110
  H      -2.185059      1.523519     -0.773906
  H      -2.933338      0.059089     -1.395055
  H      -1.186216     -0.192996     -3.143061
  H      -0.352884      1.270605     -2.550367
  H      -1.977853      1.401951     -3.254333
39
Coordinates from ORCA-job opt E -1074.869629789438
  C       2.012577     -0.517192      2.324217
  C       2.227871     -0.783457      0.840763
  N       0.970654     -1.042942      0.138932
  C       0.857358     -2.320966     -0.566061
  C       1.724932     -2.367273     -1.818661
  C       0.129093     -0.002052     -0.100386
  N       0.624460      1.218338     -0.061026
  P      -0.060468      2.596984      0.441491
  C       1.276120      3.641457      1.018793
  O      -1.251565      2.561737      1.346551
  F      -0.455502      3.394360     -0.920968
  N      -1.171881     -0.308772     -0.396194
  C      -1.906165     -1.296854      0.397479
  C      -2.898549     -0.652175      1.359925
  C      -1.964527      0.562060     -1.263595
  C      -1.329158      0.769896     -2.630450
  H       2.975879     -0.343115      2.826469
  H       1.383461      0.372312      2.477405
  H       1.521131     -1.375203      2.807900
  H       2.860414     -1.672386      0.709795
  H       2.749811      0.061603      0.367438
  H      -0.187974     -2.491920     -0.843752
  H       1.134253     -3.124874      0.134085
  H       2.788883     -2.208026     -1.587028
  H       1.629278     -3.347634     -2.308693
  H       1.409188     -1.592620     -2.534649
  H       2.062044      3.710294      0.255178
  H       1.697859      3.204644      1.934815
  H       0.884545      4.643134      1.242751
  H      -1.178618     -1.879814      0.975334
  H      -2.422557     -1.999308     -0.279304
  H      -3.349196     -1.421851      2.003814
  H      -2.389355      0.089862      1.992434
  H      -3.714779     -0.139478      0.829342
  H      -2.184112      1.524398     -0.773362
  H      -2.934463      0.060544     -1.393311
  H      -1.188230     -0.194252     -3.142338
  H      -0.353697      1.269245     -2.551148
  H      -1.979014      1.401297     -3.253983
