41
Coordinates from ORCA-job opt E -1527.698888994627
  C          -3.87939614709588     -4.04017866240522     -1.00007456521310
  C          -2.70284121327387     -3.39011628725369     -0.31284962216331
  O          -2.77773297670404     -1.96918529086312     -0.52525704440876
  P          -1.88238971939789     -0.97000520028209      0.34343665775233
  O          -2.07345614496957     -1.00747544349466      1.81742179548046
  N          -2.12479539200507      0.49357540599058     -0.33664506530628
  C          -2.29859306006970      1.74525159750759      0.40921435860376
  C          -3.48080582085438      2.52432183547912     -0.15836382347315
  C          -1.01338218973436      2.57040374725604      0.42004494493083
  O          -0.40023639009948     -1.49915105404899     -0.13319547148298
  C           0.72293465330959     -0.77867588635981      0.20903015261296
  C           1.13699627720092     -0.68986816494543      1.53530405837338
  C           2.27651874957570      0.05574936603406      1.82546616737279
  C           2.99874342775768      0.70066100226255      0.81593715224792
  S           4.43461212886944      1.65711949768994      1.27435267079537
  C           5.75477379114082      0.44291861401805      1.00903493846892
  C           2.57365348873193      0.61315897204789     -0.52667639834999
  C           3.30771655335872      1.30174228467009     -1.64629419476087
  C           1.42846156768729     -0.13829998232712     -0.80716116373928
  H          -3.86394434015814     -3.83063767746279     -2.07976625554928
  H          -4.82766935013368     -3.66986644279678     -0.58393846048365
  H          -3.83703897211875     -5.12962174816044     -0.85760846415081
  H          -2.71308091632877     -3.59039103228073      0.77070651065233
  H          -1.74730137308036     -3.75695053965723     -0.72006678460480
  H          -1.95857900678102      0.58226545814251     -1.33638842563973
  H          -2.53483061762991      1.44869350946064      1.44264738316480
  H          -3.65432921652933      3.44365850070646      0.42030947090589
  H          -4.39708230214322      1.91641602058636     -0.13233260074397
  H          -3.28834692585324      2.81303247015315     -1.20477834010258
  H          -0.18782079288376      2.00684085344868      0.88144641499281
  H          -0.71447675571860      2.83625218760529     -0.60722979757983
  H          -1.15384431971727      3.50319016122668      0.98691073689219
  H           0.56725093592408     -1.18885750732355      2.32062786185868
  H           2.61867533143121      0.13953353722921      2.86002081276187
  H           6.69670764909017      0.93910590785800      1.28111684330364
  H           5.80665741416644      0.13037512951326     -0.04297502596899
  H           5.61021659407300     -0.43463229246427      1.65377622841869
  H           2.75219667524237      1.21425091693733     -2.58951750448447
  H           4.30498756713127      0.85951817250259     -1.79705490642588
  H           3.46052685899153      2.36741064810274     -1.42293433392753
  H           1.06034425959814     -0.22153257430291     -1.83269257103037
