41
Coordinates from ORCA-job opt E -1527.687246500156
  C      -3.519475     -3.574176     -1.147219
  C      -2.518829     -2.895587     -0.235007
  O      -2.631235     -1.492205     -0.403305
  P      -1.529487     -0.580292      0.352053
  O      -1.329125     -1.008444      1.774322
  N      -2.038509      0.954939      0.071754
  C      -3.201290      1.460554      0.796390
  C      -3.789615      2.653325      0.039755
  C      -2.813222      1.886344      2.210716
  O      -0.239495     -0.819533     -0.586287
  C       0.986540     -0.250272     -0.389235
  C       1.307483      0.563408      0.690027
  C       2.594208      1.097664      0.796097
  C       3.572986      0.818582     -0.168468
  S       5.196425      1.544861      0.037171
  C       5.805533      0.491440      1.379482
  C       3.250314      0.001712     -1.267115
  C       4.248333     -0.325064     -2.344311
  C       1.951312     -0.528452     -1.359683
  H      -3.329736     -3.308818     -2.192540
  H      -4.537915     -3.245473     -0.915168
  H      -3.467245     -4.661584     -1.043927
  H      -2.728050     -3.151874      0.808192
  H      -1.503377     -3.219445     -0.484202
  H      -2.190861      1.063624     -0.924676
  H      -3.971266      0.681992      0.848728
  H      -4.668710      3.046882      0.561632
  H      -4.107754      2.362420     -0.967691
  H      -3.062627      3.467859     -0.056093
  H      -2.465218      1.039250      2.808228
  H      -2.018018      2.640445      2.198286
  H      -3.674116      2.318341      2.732864
  H       0.584654      0.801467      1.464948
  H       2.824127      1.740734      1.643150
  H       6.837274      0.768290      1.611991
  H       5.786871     -0.559969      1.079372
  H       5.200609      0.622497      2.280698
  H       3.811909     -0.973061     -3.112196
  H       5.107894     -0.855346     -1.921934
  H       4.585998      0.588580     -2.843894
  H       1.682709     -1.165614     -2.199901
41
Coordinates from ORCA-job opt E -1527.691781817770
  C      -3.506434     -3.635713     -1.150213
  C      -2.521733     -2.960716     -0.220042
  O      -2.629793     -1.543243     -0.390598
  P      -1.564058     -0.598376      0.372554
  O      -1.357160     -0.976430      1.801268
  N      -2.061395      0.939456      0.055828
  C      -3.217016      1.500937      0.786342
  C      -3.759765      2.688369     -0.001974
  C      -2.811232      1.921691      2.195920
  O      -0.259984     -0.816830     -0.559506
  C       0.969415     -0.239097     -0.357700
  C       1.283037      0.552305      0.744007
  C       2.562188      1.094995      0.845724
  C       3.536725      0.842673     -0.126178
  S       5.159369      1.564977      0.078228
  C       5.845797      0.429736      1.313481
  C       3.221162      0.044329     -1.240836
  C       4.230602     -0.258037     -2.317939
  C       1.929976     -0.487278     -1.338586
  H      -3.292157     -3.375830     -2.197935
  H      -4.534238     -3.309756     -0.929795
  H      -3.452630     -4.727682     -1.040281
  H      -2.742513     -3.216748      0.828044
  H      -1.493875     -3.285795     -0.450612
  H      -2.166580      1.062057     -0.954290
  H      -4.020433      0.744737      0.856442
  H      -4.630352      3.121389      0.510288
  H      -4.081531      2.383668     -1.010806
  H      -2.997055      3.475961     -0.107185
  H      -2.476261      1.062033      2.793337
  H      -1.992085      2.656966      2.163803
  H      -3.662855      2.380600      2.720336
  H       0.555936      0.759125      1.531384
  H       2.798385      1.724593      1.707070
  H       6.882799      0.729672      1.518873
  H       5.845347     -0.600932      0.932482
  H       5.273546      0.477439      2.250333
  H       3.798889     -0.901665     -3.096678
  H       5.102931     -0.779782     -1.896729
  H       4.575450      0.667622     -2.801357
  H       1.659581     -1.111420     -2.193499
41
Coordinates from ORCA-job opt E -1527.693597156216
  C      -3.480733     -3.693611     -1.140386
  C      -2.516570     -3.022060     -0.191267
  O      -2.623972     -1.596811     -0.367228
  P      -1.608569     -0.617877      0.408864
  O      -1.417482     -0.937554      1.846870
  N      -2.089963      0.918276      0.042352
  C      -3.235583      1.542048      0.753571
  C      -3.726970      2.711944     -0.085483
  C      -2.821340      1.976277      2.154043
  O      -0.281809     -0.819169     -0.506977
  C       0.946725     -0.236362     -0.291405
  C       1.252519      0.513937      0.843574
  C       2.526429      1.063714      0.950540
  C       3.493878      0.865298     -0.037495
  S       5.108367      1.597961      0.171641
  C       5.915885      0.327881      1.182455
  C       3.183167      0.104689     -1.182719
  C       4.194334     -0.143612     -2.272738
  C       1.899976     -0.434717     -1.288731
  H      -3.238735     -3.443435     -2.185051
  H      -4.514628     -3.373731     -0.936476
  H      -3.424100     -4.785813     -1.020733
  H      -2.748638     -3.270971      0.857453
  H      -1.479316     -3.338082     -0.397870
  H      -2.130542      1.052528     -0.969333
  H      -4.063775      0.811515      0.842397
  H      -4.587654      3.193179      0.402162
  H      -4.045835      2.379819     -1.087067
  H      -2.930308      3.464783     -0.206857
  H      -2.501388      1.116069      2.759332
  H      -1.984577      2.692268      2.098741
  H      -3.665834      2.463020      2.666451
  H       0.523783      0.669014      1.641510
  H       2.771188      1.662064      1.832959
  H       6.947100      0.663776      1.365797
  H       5.942655     -0.634249      0.650087
  H       5.402171      0.207125      2.147560
  H       3.765560     -0.768480     -3.068830
  H       5.083945     -0.654895     -1.872401
  H       4.535818      0.802012     -2.721050
  H       1.624820     -1.027768     -2.165259
41
Coordinates from ORCA-job opt E -1527.694070868647
  C      -3.483800     -3.713326     -1.151978
  C      -2.521999     -3.053716     -0.194235
  O      -2.624413     -1.625495     -0.361531
  P      -1.638067     -0.642092      0.434669
  O      -1.483361     -0.942995      1.878859
  N      -2.099253      0.894788      0.044988
  C      -3.234598      1.558747      0.734900
  C      -3.694802      2.720120     -0.133310
  C      -2.819864      2.010290      2.129831
  O      -0.289900     -0.845580     -0.457566
  C       0.931235     -0.253106     -0.232989
  C       1.224645      0.489447      0.910728
  C       2.492819      1.053423      1.021528
  C       3.462847      0.879076      0.032180
  S       5.061836      1.642759      0.241814
  C       5.969882      0.305098      1.062660
  C       3.163429      0.123334     -1.121434
  C       4.176327     -0.097411     -2.214578
  C       1.887119     -0.431180     -1.231844
  H      -3.234705     -3.459511     -2.193178
  H      -4.517397     -3.395677     -0.947548
  H      -3.428279     -4.806066     -1.037692
  H      -2.755315     -3.304495      0.853054
  H      -1.483380     -3.365175     -0.396606
  H      -2.093623      1.042642     -0.964018
  H      -4.076488      0.846281      0.832171
  H      -4.546495      3.231974      0.338280
  H      -4.014503      2.372117     -1.128257
  H      -2.879434      3.450183     -0.265495
  H      -2.508855      1.154650      2.744450
  H      -1.976190      2.716532      2.063185
  H      -3.661795      2.512365      2.630706
  H       0.489969      0.622267      1.706003
  H       2.734725      1.646315      1.908045
  H       6.991224      0.674396      1.233922
  H       6.013554     -0.588747      0.423855
  H       5.510801      0.054021      2.029334
  H       3.754978     -0.720364     -3.015366
  H       5.076858     -0.594337     -1.821579
  H       4.507674      0.857469     -2.650006
  H       1.616595     -1.019019     -2.112949
41
Coordinates from ORCA-job opt E -1527.694302877485
  C      -3.502695     -3.724526     -1.156999
  C      -2.523705     -3.072577     -0.211993
  O      -2.626487     -1.643964     -0.368793
  P      -1.650740     -0.661969      0.434808
  O      -1.515468     -0.959175      1.881875
  N      -2.103691      0.874259      0.040575
  C      -3.214834      1.564664      0.736769
  C      -3.681010      2.716456     -0.142689
  C      -2.768488      2.040233      2.114800
  O      -0.293266     -0.871125     -0.447081
  C       0.921365     -0.270958     -0.221367
  C       1.210494      0.467962      0.925191
  C       2.476581      1.038047      1.039123
  C       3.448492      0.873348      0.049805
  S       5.038248      1.654613      0.264169
  C       5.971651      0.323557      1.068162
  C       3.152014      0.122684     -1.109261
  C       4.158309     -0.075417     -2.211783
  C       1.878682     -0.439708     -1.221436
  H      -3.271729     -3.463991     -2.199956
  H      -4.531846     -3.409484     -0.931186
  H      -3.444857     -4.817635     -1.051435
  H      -2.738742     -3.327182      0.837515
  H      -1.488892     -3.380732     -0.433135
  H      -2.086367      1.032896     -0.965393
  H      -4.060767      0.863354      0.862719
  H      -4.515471      3.247230      0.337700
  H      -4.026602      2.353777     -1.122896
  H      -2.861016      3.434057     -0.305969
  H      -2.443888      1.194015      2.734392
  H      -1.926863      2.744464      2.017841
  H      -3.598623      2.550509      2.625911
  H       0.473318      0.588972      1.719514
  H       2.719071      1.624749      1.928943
  H       6.984952      0.712344      1.240236
  H       6.032550     -0.563953      0.423211
  H       5.518835      0.056023      2.032461
  H       3.735294     -0.687403     -3.019345
  H       5.064720     -0.572884     -1.835271
  H       4.482106      0.888446     -2.631987
  H       1.609366     -1.023978     -2.104744
41
Coordinates from ORCA-job opt E -1527.694550033024
  C      -3.522457     -3.755293     -1.149757
  C      -2.516830     -3.100451     -0.235170
  O      -2.626149     -1.673609     -0.389367
  P      -1.671471     -0.683438      0.420886
  O      -1.564828     -0.970744      1.873621
  N      -2.125297      0.845005      0.016999
  C      -3.185598      1.576254      0.738696
  C      -3.701305      2.690562     -0.163236
  C      -2.658731      2.120075      2.063561
  O      -0.297616     -0.898275     -0.440701
  C       0.906485     -0.288546     -0.203479
  C       1.191632      0.421945      0.961191
  C       2.454023      0.998507      1.091231
  C       3.426148      0.870552      0.096058
  S       5.008097      1.659081      0.337744
  C       5.969628      0.304764      1.066707
  C       3.133103      0.151371     -1.083939
  C       4.135856     -0.005546     -2.195126
  C       1.865124     -0.421256     -1.209523
  H      -3.324500     -3.493087     -2.198564
  H      -4.544837     -3.444850     -0.891780
  H      -3.457259     -4.847946     -1.047694
  H      -2.700636     -3.352837      0.820243
  H      -1.488210     -3.403419     -0.486567
  H      -2.106833      1.014756     -0.985882
  H      -4.024525      0.887864      0.946236
  H      -4.500663      3.249458      0.343163
  H      -4.110114      2.284608     -1.100770
  H      -2.891352      3.394623     -0.410767
  H      -2.288106      1.304248      2.697750
  H      -1.832505      2.825343      1.883364
  H      -3.459747      2.646985      2.602733
  H       0.452106      0.510387      1.757544
  H       2.697455      1.558616      1.997274
  H       6.975344      0.705586      1.252163
  H       6.045563     -0.549928      0.381213
  H       5.526753     -0.017599      2.018189
  H       3.710625     -0.582597     -3.026344
  H       5.042745     -0.520568     -1.844827
  H       4.459929      0.974937     -2.573854
  H       1.598951     -0.985538     -2.106216
41
Coordinates from ORCA-job opt E -1527.694725422623
  C      -3.560252     -3.775115     -1.156062
  C      -2.535916     -3.126529     -0.257584
  O      -2.632511     -1.699891     -0.414855
  P      -1.690460     -0.712948      0.411653
  O      -1.621015     -0.995398      1.868760
  N      -2.126549      0.814120      0.000764
  C      -3.143607      1.583646      0.739876
  C      -3.691554      2.669743     -0.177828
  C      -2.553970      2.172009      2.019058
  O      -0.299264     -0.944921     -0.420215
  C       0.896522     -0.324051     -0.175226
  C       1.176626      0.371456      0.999595
  C       2.430223      0.965340      1.135385
  C       3.400092      0.869130      0.133926
  S       4.967069      1.684767      0.382068
  C       5.969126      0.333009      1.058819
  C       3.112872      0.166124     -1.056560
  C       4.111304      0.046921     -2.176375
  C       1.853862     -0.424267     -1.187066
  H      -3.374272     -3.517203     -2.208303
  H      -4.576109     -3.453770     -0.885512
  H      -3.504119     -4.868107     -1.052359
  H      -2.709349     -3.373697      0.800979
  H      -1.513723     -3.440342     -0.521953
  H      -2.095153      0.997228     -0.999114
  H      -3.978907      0.913181      1.010197
  H      -4.463153      3.253178      0.343643
  H      -4.144810      2.234485     -1.081269
  H      -2.889014      3.358664     -0.485147
  H      -2.157965      1.375816      2.663784
  H      -1.734331      2.866507      1.777075
  H      -3.326389      2.722004      2.576810
  H       0.437199      0.434913      1.798672
  H       2.669110      1.516027      2.048376
  H       6.964392      0.755457      1.252859
  H       6.066407     -0.496605      0.345647
  H       5.540634     -0.033694      2.000978
  H       3.684024     -0.502633     -3.025106
  H       5.020562     -0.479424     -1.849320
  H       4.430665      1.040726     -2.523199
  H       1.591702     -0.975854     -2.092868
41
Coordinates from ORCA-job opt E -1527.695198269420
  C      -3.646130     -3.830432     -1.149006
  C      -2.576483     -3.189212     -0.298422
  O      -2.648263     -1.764347     -0.472591
  P      -1.739517     -0.776395      0.389136
  O      -1.766169     -1.029014      1.855453
  N      -2.125447      0.744382     -0.054309
  C      -3.030705      1.609054      0.718081
  C      -3.663416      2.624902     -0.225711
  C      -2.289392      2.288198      1.866867
  O      -0.307522     -1.060790     -0.356989
  C       0.868527     -0.412128     -0.093218
  C       1.145133      0.219475      1.117935
  C       2.375689      0.853698      1.272768
  C       3.329301      0.859656      0.250298
  S       4.860413      1.733349      0.522556
  C       5.965702      0.385294      1.020346
  C       3.048108      0.220836     -0.975928
  C       4.027652      0.215666     -2.119258
  C       1.812526     -0.411923     -1.123039
  H      -3.495259     -3.587958     -2.211129
  H      -4.645071     -3.483994     -0.846486
  H      -3.607631     -4.923197     -1.034388
  H      -2.718948     -3.419777      0.769080
  H      -1.571406     -3.529286     -0.595902
  H      -2.048428      0.951659     -1.046328
  H      -3.843218      0.991936      1.140920
  H      -4.362965      3.269166      0.325288
  H      -4.220182      2.125119     -1.032895
  H      -2.891092      3.268561     -0.676476
  H      -1.838830      1.534985      2.529488
  H      -1.489154      2.937465      1.477641
  H      -2.980308      2.905091      2.461252
  H       0.416394      0.199986      1.929960
  H       2.609764      1.358051      2.213466
  H       6.936919      0.849869      1.240298
  H       6.100679     -0.353007      0.217906
  H       5.588965     -0.112630      1.924256
  H       3.585306     -0.243359     -3.013367
  H       4.940637     -0.345881     -1.868130
  H       4.339560      1.240826     -2.367754
  H       1.554261     -0.913894     -2.058666
41
Coordinates from ORCA-job opt E -1527.695674378752
  C      -3.713909     -3.875068     -1.129003
  C      -2.601357     -3.235894     -0.332505
  O      -2.662799     -1.813116     -0.519856
  P      -1.771891     -0.822470      0.363081
  O      -1.864375     -1.046507      1.833102
  N      -2.117681      0.693046     -0.107165
  C      -2.916744      1.630274      0.697387
  C      -3.646377      2.586363     -0.238621
  C      -2.043668      2.371549      1.706138
  O      -0.317332     -1.153886     -0.315727
  C       0.845171     -0.482277     -0.042926
  C       1.128148      0.085921      1.197805
  C       2.338198      0.752660      1.367400
  C       3.269168      0.849827      0.328137
  S       4.775478      1.759156      0.622437
  C       5.929852      0.427014      1.041868
  C       2.984409      0.272878     -0.926557
  C       3.941501      0.365179     -2.086049
  C       1.766987     -0.390167     -1.087882
  H      -3.607679     -3.643421     -2.199599
  H      -4.695222     -3.511887     -0.788737
  H      -3.683226     -4.967285     -1.005705
  H      -2.703486     -3.456188      0.742410
  H      -1.614734     -3.594867     -0.669252
  H      -2.008139      0.913079     -1.093394
  H      -3.680712      1.059701      1.254166
  H      -4.275006      3.277278      0.341324
  H      -4.292492      2.039687     -0.942419
  H      -2.926290      3.188680     -0.816656
  H      -1.537824      1.655029      2.370822
  H      -1.278114      2.971834      1.188311
  H      -2.651297      3.047368      2.327753
  H       0.417528     -0.008063      2.021339
  H       2.573113      1.209603      2.332032
  H       6.887402      0.910499      1.282073
  H       6.086463     -0.263169      0.200824
  H       5.577142     -0.131449      1.920351
  H       3.479515     -0.013005     -3.008274
  H       4.854806     -0.223388     -1.905743
  H       4.250083      1.407894     -2.251698
  H       1.505387     -0.842415     -2.047989
41
Coordinates from ORCA-job opt E -1527.696297999309
  C      -3.759339     -3.923946     -1.046785
  C      -2.596897     -3.262500     -0.343244
  O      -2.678811     -1.844220     -0.553427
  P      -1.782283     -0.837952      0.323879
  O      -1.894547     -1.022463      1.798869
  N      -2.112998      0.668154     -0.182451
  C      -2.820071      1.662696      0.649181
  C      -3.684640      2.533314     -0.253125
  C      -1.841863      2.477551      1.488107
  O      -0.325315     -1.214856     -0.311722
  C       0.833160     -0.533269     -0.021066
  C       1.139854     -0.090290      1.264343
  C       2.333174      0.592740      1.469392
  C       3.228984      0.821370      0.419602
  S       4.728049      1.727279      0.762135
  C       5.890247      0.376094      1.079704
  C       2.924626      0.364414     -0.878225
  C       3.857452      0.584472     -2.042009
  C       1.717360     -0.308150     -1.074899
  H      -3.733392     -3.710131     -2.127013
  H      -4.716708     -3.555247     -0.646373
  H      -3.714622     -5.013945     -0.906173
  H      -2.624824     -3.468921      0.739891
  H      -1.636180     -3.631639     -0.741825
  H      -1.979108      0.891102     -1.166462
  H      -3.490764      1.123492      1.340300
  H      -4.252378      3.257292      0.350512
  H      -4.398901      1.924113     -0.828541
  H      -3.059199      3.101688     -0.963088
  H      -1.263122      1.817511      2.152130
  H      -1.137499      3.027364      0.841260
  H      -2.373298      3.208672      2.118284
  H       0.459204     -0.289422      2.095341
  H       2.578102      0.953177      2.472243
  H       6.853475      0.837455      1.342828
  H       6.035566     -0.252972      0.189062
  H       5.549802     -0.243471      1.922242
  H       3.371691      0.315222     -2.990943
  H       4.764155     -0.034910     -1.948281
  H       4.171045      1.637042     -2.099305
  H       1.440813     -0.663908     -2.071347
41
Coordinates from ORCA-job opt E -1527.696831161207
  C      -3.834178     -3.969591     -1.018748
  C      -2.626401     -3.320425     -0.383146
  O      -2.686605     -1.905710     -0.617420
  P      -1.837168     -0.890650      0.294676
  O      -2.066419     -1.020284      1.762797
  N      -2.099475      0.602689     -0.265451
  C      -2.638107      1.685145      0.575082
  C      -3.637713      2.500492     -0.235759
  C      -1.519924      2.537331      1.165819
  O      -0.347978     -1.330840     -0.220516
  C       0.788829     -0.619382      0.085202
  C       1.117371     -0.271144      1.394194
  C       2.289076      0.441567      1.622775
  C       3.139981      0.795775      0.570037
  S       4.607421      1.738889      0.946864
  C       5.857199      0.433000      1.039868
  C       2.811559      0.438338     -0.753126
  C       3.693510      0.798066     -1.921299
  C       1.627874     -0.269255     -0.970939
  H      -3.855100     -3.775310     -2.102692
  H      -4.763727     -3.573640     -0.580964
  H      -3.804386     -5.057645     -0.860719
  H      -2.608480     -3.506589      0.703979
  H      -1.692710     -3.716629     -0.817750
  H      -1.889191      0.821880     -1.235193
  H      -3.182284      1.216556      1.411333
  H      -4.092106      3.279270      0.394836
  H      -4.439337      1.861487     -0.636279
  H      -3.136859      3.004130     -1.080610
  H      -0.842785      1.911300      1.768410
  H      -0.931434      3.020609      0.367815
  H      -1.921849      3.326532      1.821371
  H       0.466062     -0.567671      2.219655
  H       2.553628      0.726477      2.644617
  H       6.803921      0.918105      1.319465
  H       5.996273     -0.071004      0.072232
  H       5.594209     -0.305926      1.810720
  H       3.164534      0.646482     -2.873115
  H       4.598733      0.169563     -1.946868
  H       4.011677      1.848700     -1.862625
  H       1.332362     -0.550688     -1.985524
41
Coordinates from ORCA-job opt E -1527.697645358017
  C      -3.851381     -3.985535     -0.986329
  C      -2.641661     -3.339119     -0.354748
  O      -2.696205     -1.924661     -0.605566
  P      -1.843326     -0.914995      0.308125
  O      -2.074050     -1.020379      1.772348
  N      -2.083192      0.580433     -0.298258
  C      -2.570749      1.707267      0.510635
  C      -3.626055      2.482379     -0.269625
  C      -1.408194      2.577300      0.975643
  O      -0.353863     -1.373155     -0.187722
  C       0.777120     -0.649690      0.132017
  C       1.117469     -0.392211      1.459539
  C       2.291976      0.313855      1.711568
  C       3.113502      0.759018      0.672007
  S       4.584555      1.683465      1.080743
  C       5.847001      0.387899      0.982078
  C       2.753995      0.510058     -0.671570
  C       3.598427      0.975331     -1.826686
  C       1.576189     -0.204375     -0.915208
  H      -3.866683     -3.810011     -2.071637
  H      -4.778759     -3.584184     -0.553016
  H      -3.823708     -5.070699     -0.811085
  H      -2.616608     -3.511515      0.733326
  H      -1.706303     -3.735875     -0.780450
  H      -1.825973      0.780602     -1.258759
  H      -3.036931      1.252116      1.396082
  H      -4.055458      3.281056      0.352344
  H      -4.436432      1.817242     -0.599465
  H      -3.181960      2.954944     -1.160936
  H      -0.678788      1.974123      1.538628
  H      -0.889740      3.028536      0.114456
  H      -1.761399      3.388721      1.629672
  H       0.470503     -0.734523      2.267738
  H       2.578748      0.520446      2.745703
  H       6.805264      0.862327      1.235474
  H       5.912520     -0.029287     -0.031789
  H       5.642315     -0.412161      1.705915
  H       3.044723      0.883034     -2.770348
  H       4.514318      0.368698     -1.910161
  H       3.916415      2.018269     -1.697002
  H       1.262381     -0.414745     -1.940677
41
Coordinates from ORCA-job opt E -1527.698204712482
  C      -3.908191     -4.005118     -0.942221
  C      -2.671631     -3.366365     -0.356912
  O      -2.715600     -1.954035     -0.621930
  P      -1.859090     -0.943561      0.283090
  O      -2.107928     -1.018877      1.746478
  N      -2.080971      0.540594     -0.355289
  C      -2.441400      1.718563      0.445365
  C      -3.587895      2.470727     -0.220293
  C      -1.219809      2.599285      0.692506
  O      -0.366972     -1.432441     -0.181252
  C       0.758850     -0.715418      0.165327
  C       1.118471     -0.551547      1.501423
  C       2.275943      0.169109      1.787544
  C       3.064650      0.715788      0.770673
  S       4.510068      1.657438      1.229072
  C       5.822212      0.431656      0.980993
  C       2.687599      0.557495     -0.581788
  C       3.488572      1.140256     -1.714158
  C       1.525285     -0.170329     -0.859647
  H      -3.956541     -3.839318     -2.028066
  H      -4.816407     -3.589971     -0.482520
  H      -3.886879     -5.088880     -0.758105
  H      -2.614364     -3.527083      0.731467
  H      -1.754436     -3.777362     -0.807514
  H      -1.821178      0.712182     -1.321998
  H      -2.783285      1.318205      1.410318
  H      -3.914254      3.313926      0.405958
  H      -4.444763      1.803575     -0.388962
  H      -3.271715      2.879217     -1.193772
  H      -0.424829      2.021137      1.188065
  H      -0.819736      2.988059     -0.257715
  H      -1.474647      3.456933      1.333347
  H       0.490860     -0.967452      2.290615
  H       2.575344      0.309858      2.828992
  H       6.765936      0.923625      1.253573
  H       5.877411      0.110398     -0.067596
  H       5.670295     -0.438228      1.633718
  H       2.908090      1.125492     -2.645875
  H       4.410172      0.560124     -1.880315
  H       3.796211      2.172095     -1.497320
  H       1.196553     -0.309752     -1.892273
41
Coordinates from ORCA-job opt E -1527.698570044398
  C      -3.982681     -4.012552     -0.867351
  C      -2.716216     -3.390740     -0.330815
  O      -2.749258     -1.976815     -0.594446
  P      -1.849815     -0.979895      0.270556
  O      -2.054587     -1.035033      1.742566
  N      -2.081134      0.491964     -0.395027
  C      -2.308527      1.729142      0.362497
  C      -3.517062      2.471609     -0.196472
  C      -1.055469      2.605085      0.371247
  O      -0.368443     -1.490391     -0.218663
  C       0.758146     -0.802732      0.168475
  C       1.145321     -0.762779      1.504159
  C       2.279401     -0.029680      1.843131
  C       3.021044      0.653435      0.872993
  S       4.436333      1.599964      1.408198
  C       5.798169      0.475793      0.991297
  C       2.620258      0.617522     -0.480111
  C       3.356879      1.359358     -1.562624
  C       1.482673     -0.126383     -0.811026
  H      -4.071560     -3.841825     -1.950198
  H      -4.866473     -3.588221     -0.369568
  H      -3.969329     -5.097265     -0.688197
  H      -2.622562     -3.550441      0.754934
  H      -1.821788     -3.812132     -0.816462
  H      -1.880046      0.608463     -1.386600
  H      -2.530584      1.414478      1.394045
  H      -3.722323      3.381908      0.386787
  H      -4.410400      1.830317     -0.170848
  H      -3.337963      2.771079     -1.241868
  H      -0.205663      2.060179      0.809032
  H      -0.780093      2.900517     -0.654492
  H      -1.221484      3.523146      0.955168
  H       0.554031     -1.285904      2.257501
  H       2.600974      0.017435      2.886301
  H       6.722847      0.979518      1.303929
  H       5.845538      0.282070     -0.088534
  H       5.699185     -0.471342      1.538433
  H       2.751393      1.419893     -2.476500
  H       4.301030      0.852658     -1.817623
  H       3.618661      2.376079     -1.236141
  H       1.131576     -0.167483     -1.844680
41
Coordinates from ORCA-job opt E -1527.698732665528
  C      -3.977714     -4.011349     -0.909783
  C      -2.716479     -3.395304     -0.354023
  O      -2.748495     -1.978633     -0.603614
  P      -1.862459     -0.986843      0.283200
  O      -2.090257     -1.044677      1.751833
  N      -2.076667      0.488221     -0.379771
  C      -2.298673      1.721937      0.383799
  C      -3.495799      2.479285     -0.181425
  C      -1.034837      2.579999      0.416614
  O      -0.375138     -1.503632     -0.179806
  C       0.743435     -0.792112      0.192450
  C       1.128347     -0.714866      1.527881
  C       2.261786      0.026947      1.848724
  C       3.005370      0.682508      0.861106
  S       4.419822      1.644463      1.369693
  C       5.781117      0.512287      0.977573
  C       2.609122      0.606858     -0.491212
  C       3.362345      1.302792     -1.593093
  C       1.471123     -0.144117     -0.803116
  H      -4.056414     -3.828969     -1.991684
  H      -4.866481     -3.591281     -0.416771
  H      -3.966369     -5.097961     -0.741843
  H      -2.634547     -3.566649      0.731258
  H      -1.817742     -3.813009     -0.835131
  H      -1.859163      0.607674     -1.366563
  H      -2.534079      1.401442      1.409997
  H      -3.698167      3.385910      0.408152
  H      -4.395796      1.846813     -0.170450
  H      -3.303758      2.786916     -1.222462
  H      -0.197814      2.022594      0.864742
  H      -0.740396      2.877167     -0.603411
  H      -1.197704      3.496331      1.003863
  H       0.538086     -1.219346      2.294490
  H       2.581714      0.101292      2.890976
  H       6.706390      1.021755      1.280114
  H       5.828961      0.296359     -0.098364
  H       5.682401     -0.423694      1.543924
  H       2.765135      1.336367     -2.513991
  H       4.302923      0.776686     -1.822329
  H       3.631480      2.327877     -1.301524
  H       1.125388     -0.218040     -1.837018
41
Coordinates from ORCA-job opt E -1527.698770941920
  C      -3.974429     -4.001638     -0.950143
  C      -2.720868     -3.394611     -0.367330
  O      -2.751587     -1.973946     -0.594987
  P      -1.863407     -0.993189      0.301691
  O      -2.086824     -1.061311      1.770590
  N      -2.076026      0.486573     -0.351784
  C      -2.305210      1.717045      0.414529
  C      -3.485119      2.484102     -0.173876
  C      -1.037328      2.565889      0.483510
  O      -0.376658     -1.512948     -0.162671
  C       0.740396     -0.790910      0.195907
  C       1.119175     -0.673415      1.530583
  C       2.250835      0.077399      1.835473
  C       3.000582      0.701929      0.832359
  S       4.407371      1.685990      1.319011
  C       5.776503      0.546070      0.983684
  C       2.612936      0.583443     -0.519046
  C       3.377770      1.240984     -1.636622
  C       1.475790     -0.174938     -0.813991
  H      -4.038719     -3.801699     -2.029972
  H      -4.869869     -3.588682     -0.462998
  H      -3.965707     -5.090824     -0.799445
  H      -2.654813     -3.582770      0.716397
  H      -1.815994     -3.805146     -0.843027
  H      -1.868969      0.604737     -1.340707
  H      -2.567945      1.395677      1.434128
  H      -3.692983      3.389680      0.415122
  H      -4.390689      1.859525     -0.183265
  H      -3.269117      2.793755     -1.209688
  H      -0.216123      2.005945      0.957127
  H      -0.712303      2.859715     -0.528198
  H      -1.212829      3.483346      1.065293
  H       0.527651     -1.156216      2.310128
  H       2.564719      0.183572      2.876856
  H       6.696281      1.067768      1.282659
  H       5.841040      0.295430     -0.083896
  H       5.672877     -0.371805      1.578310
  H       2.792733      1.237662     -2.566069
  H       4.322770      0.710024     -1.834657
  H       3.638313      2.277743     -1.380720
  H       1.135773     -0.279957     -1.847260
41
Coordinates from ORCA-job opt E -1527.698747128748
  C      -3.999788     -4.004740     -0.962286
  C      -2.740879     -3.410436     -0.377461
  O      -2.765353     -1.987410     -0.594031
  P      -1.878298     -1.013888      0.311594
  O      -2.116164     -1.061370      1.778784
  N      -2.068402      0.459380     -0.364533
  C      -2.210559      1.713661      0.381414
  C      -3.406992      2.499363     -0.147250
  C      -0.917298      2.524395      0.349445
  O      -0.390713     -1.566088     -0.117551
  C       0.719513     -0.827726      0.236262
  C       1.118576     -0.733943      1.567451
  C       2.240280      0.031469      1.872148
  C       2.958886      0.696493      0.872040
  S       4.348349      1.704529      1.359211
  C       5.740662      0.608685      0.980010
  C       2.550078      0.603315     -0.475043
  C       3.283165      1.304587     -1.587234
  C       1.424569     -0.172364     -0.769321
  H      -4.065958     -3.795162     -2.040186
  H      -4.891358     -3.589590     -0.469841
  H      -3.997662     -5.095220     -0.820686
  H      -2.674507     -3.607765      0.704823
  H      -1.839887     -3.822736     -0.858589
  H      -1.863678      0.549049     -1.356545
  H      -2.414259      1.422150      1.423002
  H      -3.550152      3.424273      0.430779
  H      -4.328202      1.902018     -0.079713
  H      -3.253282      2.777428     -1.203033
  H      -0.083166      1.958067      0.792778
  H      -0.645081      2.777245     -0.688653
  H      -1.033966      3.463519      0.910875
  H       0.551033     -1.246614      2.345547
  H       2.570321      0.117959      2.910375
  H       6.650682      1.144402      1.284526
  H       5.800587      0.389530     -0.094747
  H       5.666654     -0.327855      1.549477
  H       2.681446      1.316072     -2.506054
  H       4.232289      0.794031     -1.817270
  H       3.530742      2.338415     -1.308515
  H       1.067769     -0.257128     -1.798993
41
Coordinates from ORCA-job opt E -1527.698817118545
  C      -3.974336     -4.005578     -0.954695
  C      -2.723974     -3.398439     -0.365147
  O      -2.757847     -1.976750     -0.586621
  P      -1.869290     -0.996391      0.309885
  O      -2.093256     -1.053252      1.778828
  N      -2.079287      0.478665     -0.356362
  C      -2.275605      1.721637      0.398038
  C      -3.463792      2.491163     -0.170244
  C      -0.999399      2.560014      0.424202
  O      -0.382531     -1.530284     -0.143378
  C       0.733809     -0.804949      0.213759
  C       1.123770     -0.703640      1.546724
  C       2.253765      0.049812      1.851852
  C       2.989689      0.694092      0.851020
  S       4.395184      1.679591      1.338741
  C       5.768271      0.552378      0.979385
  C       2.589777      0.592720     -0.498583
  C       3.337134      1.275087     -1.612792
  C       1.455628     -0.170191     -0.793693
  H      -4.035392     -3.801381     -2.033821
  H      -4.872207     -3.596401     -0.469040
  H      -3.963687     -5.095332     -0.808358
  H      -2.660847     -3.591153      0.717927
  H      -1.816591     -3.804349     -0.839693
  H      -1.879831      0.581234     -1.348591
  H      -2.515031      1.414749      1.427747
  H      -3.649277      3.405665      0.412486
  H      -4.374354      1.874476     -0.149340
  H      -3.271214      2.786436     -1.214768
  H      -0.171113      2.001955      0.887231
  H      -0.696112      2.835946     -0.599188
  H      -1.154391      3.487249      0.996269
  H       0.542574     -1.199948      2.325365
  H       2.577014      0.142523      2.891603
  H       6.686818      1.075385      1.279728
  H       5.827643      0.316841     -0.091889
  H       5.674308     -0.374098      1.562008
  H       2.743015      1.279697     -2.536448
  H       4.285102      0.756402     -1.827853
  H       3.589643      2.310461     -1.344196
  H       1.106218     -0.262041     -1.825095
41
Coordinates from ORCA-job opt E -1527.698829815879
  C      -3.969355     -4.009735     -0.956246
  C      -2.723269     -3.399340     -0.361196
  O      -2.760805     -1.977578     -0.580871
  P      -1.871583     -0.995594      0.312793
  O      -2.092151     -1.048795      1.782260
  N      -2.084043      0.477670     -0.356534
  C      -2.272066      1.723433      0.395219
  C      -3.458339      2.497170     -0.171306
  C      -0.992345      2.556720      0.414865
  O      -0.384905     -1.530694     -0.141411
  C       0.731933     -0.806635      0.215854
  C       1.123390     -0.708778      1.548481
  C       2.253332      0.044749      1.854039
  C       2.987331      0.692572      0.854127
  S       4.394034      1.675865      1.342748
  C       5.766150      0.549321      0.977524
  C       2.584907      0.595733     -0.495201
  C       3.328732      1.283403     -1.608456
  C       1.451065     -0.167470     -0.790830
  H      -4.026648     -3.804640     -2.035373
  H      -4.870422     -3.604089     -0.473654
  H      -3.955658     -5.099579     -0.811006
  H      -2.663306     -3.593165      0.721822
  H      -1.812670     -3.801411     -0.832769
  H      -1.892902      0.575615     -1.350949
  H      -2.509638      1.419917      1.426386
  H      -3.638594      3.413330      0.410490
  H      -4.371247      1.884131     -0.147631
  H      -3.266726      2.790346     -1.216568
  H      -0.164530      1.995863      0.875353
  H      -0.692103      2.830121     -0.610064
  H      -1.141231      3.485217      0.986494
  H       0.543535     -1.207460      2.326616
  H       2.578319      0.134453      2.893495
  H       6.685147      1.071678      1.277480
  H       5.823610      0.316415     -0.094403
  H       5.673389     -0.378558      1.558055
  H       2.733606      1.288009     -2.531433
  H       4.278502      0.769007     -1.825590
  H       3.577698      2.319097     -1.337763
  H       1.099856     -0.256314     -1.821839
41
Coordinates from ORCA-job opt E -1527.698850002258
  C      -3.947839     -4.020649     -0.966490
  C      -2.718279     -3.398895     -0.349432
  O      -2.768746     -1.976888     -0.562982
  P      -1.878370     -0.989822      0.323970
  O      -2.090629     -1.032277      1.794794
  N      -2.098244      0.478027     -0.354418
  C      -2.269142      1.730378      0.390568
  C      -3.449618      2.512464     -0.176483
  C      -0.982063      2.552566      0.400817
  O      -0.392318     -1.530130     -0.130464
  C       0.726301     -0.807698      0.223665
  C       1.125618     -0.717904      1.554327
  C       2.257357      0.034273      1.857213
  C       2.984697      0.688705      0.856914
  S       4.396352      1.666612      1.342036
  C       5.762344      0.533943      0.973499
  C       2.573133      0.601221     -0.490423
  C       3.307742      1.298798     -1.603656
  C       1.438040     -0.161024     -0.783569
  H      -3.989965     -3.811837     -2.045604
  H      -4.861072     -3.627111     -0.496913
  H      -3.923914     -5.110816     -0.825187
  H      -2.672286     -3.597327      0.733495
  H      -1.795950     -3.788507     -0.808558
  H      -1.928057      0.564117     -1.353785
  H      -2.506003      1.434493      1.424113
  H      -3.621047      3.431844      0.402860
  H      -4.367337      1.906803     -0.150651
  H      -3.256337      2.801679     -1.222581
  H      -0.157143      1.987053      0.860934
  H      -0.683593      2.818844     -0.626446
  H      -1.120337      3.484781      0.969159
  H       0.550829     -1.220682      2.333540
  H       2.588793      0.117426      2.895204
  H       6.684472      1.053484      1.268762
  H       5.814925      0.298429     -0.098105
  H       5.668874     -0.392349      1.556493
  H       2.709680      1.300546     -2.524754
  H       4.261746      0.794118     -1.824789
  H       3.547567      2.336264     -1.331354
  H       1.079819     -0.242953     -1.812714
41
Coordinates from ORCA-job opt E -1527.698853839828
  C      -3.935234     -4.024195     -0.974465
  C      -2.715460     -3.397188     -0.343536
  O      -2.770725     -1.975242     -0.555770
  P      -1.880351     -0.986124      0.328989
  O      -2.089948     -1.026156      1.800229
  N      -2.103292      0.480496     -0.350989
  C      -2.275230      1.733001      0.393577
  C      -3.451806      2.516958     -0.178955
  C      -0.987076      2.553414      0.409873
  O      -0.394544     -1.526159     -0.126798
  C       0.724906     -0.804116      0.224835
  C       1.126279     -0.713296      1.554785
  C       2.259334      0.038059      1.855011
  C       2.986137      0.690010      0.852783
  S       4.401360      1.664953      1.333540
  C       5.762063      0.523599      0.971955
  C       2.572553      0.601395     -0.493811
  C       3.307276      1.295782     -1.609002
  C       1.435785     -0.159342     -0.784335
  H      -3.966514     -3.814538     -2.053781
  H      -4.855483     -3.635651     -0.514520
  H      -3.907436     -5.114355     -0.833881
  H      -2.679776     -3.596843      0.739572
  H      -1.786477     -3.781955     -0.793257
  H      -1.938452      0.565238     -1.351337
  H      -2.517185      1.437051      1.425903
  H      -3.624841      3.436335      0.399872
  H      -4.370317      1.912311     -0.158144
  H      -3.252850      2.806396     -1.223935
  H      -0.164935      1.986279      0.872986
  H      -0.683896      2.820194     -0.615861
  H      -1.126349      3.485353      0.978435
  H       0.552041     -1.214465      2.335433
  H       2.592431      0.121999      2.892415
  H       6.686859      1.041287      1.262105
  H       5.812046      0.279730     -0.097928
  H       5.665301     -0.397852      1.562041
  H       2.710768      1.291661     -2.531092
  H       4.263297      0.793065     -1.825842
  H       3.543677      2.335224     -1.341231
  H       1.076064     -0.242313     -1.812864
41
Coordinates from ORCA-job opt E -1527.698863368953
  C      -3.891637     -4.035142     -0.998204
  C      -2.707041     -3.390370     -0.320070
  O      -2.776719     -1.969162     -0.532037
  P      -1.885322     -0.972537      0.343684
  O      -2.085968     -1.004454      1.816385
  N      -2.118580      0.489916     -0.341781
  C      -2.296503      1.742958      0.401042
  C      -3.465884      2.527357     -0.185404
  C      -1.008071      2.562606      0.431185
  O      -0.401021     -1.510948     -0.117520
  C       0.721540     -0.790964      0.226795
  C       1.132297     -0.702409      1.554063
  C       2.270688      0.043916      1.846776
  C       2.994258      0.691255      0.839449
  S       4.422350      1.654216      1.306754
  C       5.762940      0.481293      0.970279
  C       2.571921      0.604284     -0.504246
  C       3.305859      1.292267     -1.624108
  C       1.428757     -0.149548     -0.787398
  H      -3.883717     -3.824879     -2.077846
  H      -4.835214     -3.661489     -0.574491
  H      -3.852356     -5.124852     -0.856921
  H      -2.709069     -3.591652      0.763393
  H      -1.756113     -3.761033     -0.734550
  H      -1.967173      0.571850     -1.344343
  H      -2.549749      1.447337      1.430697
  H      -3.644459      3.447709      0.390026
  H      -4.384839      1.923055     -0.174264
  H      -3.255057      2.814958     -1.228602
  H      -0.191225      1.994361      0.902256
  H      -0.694088      2.829927     -0.591144
  H      -1.152345      3.494509      0.998600
  H       0.561064     -1.201767      2.338064
  H       2.610939      0.126303      2.882022
  H       6.697938      0.990561      1.242165
  H       5.802397      0.208357     -0.093103
  H       5.653408     -0.422562      1.584887
  H       2.714403      1.271140     -2.549205
  H       4.268942      0.797919     -1.828536
  H       3.529949      2.337444     -1.368069
  H       1.062500     -0.231730     -1.813677
41
Coordinates from ORCA-job opt E -1527.698872977663
  C      -3.895542     -4.034067     -0.997260
  C      -2.708816     -3.390885     -0.321238
  O      -2.776286     -1.969656     -0.534415
  P      -1.884240     -0.973952      0.341616
  O      -2.086216     -1.007315      1.814192
  N      -2.115417      0.489512     -0.342375
  C      -2.293950      1.741742      0.401561
  C      -3.466322      2.524528     -0.181132
  C      -1.006432      2.562898      0.428719
  O      -0.400210     -1.511767     -0.119717
  C       0.722062     -0.791275      0.224781
  C       1.132095     -0.701879      1.552286
  C       2.269784      0.045139      1.845573
  C       2.993603      0.692420      0.838337
  S       4.420488      1.657085      1.305999
  C       5.761991      0.483819      0.974014
  C       2.572367      0.604349     -0.505575
  C       3.307224      1.291847     -1.625131
  C       1.429706     -0.150064     -0.789210
  H      -3.888805     -3.824760     -2.077098
  H      -4.837809     -3.658281     -0.572496
  H      -3.858196     -5.123737     -0.855093
  H      -2.710121     -3.590900      0.762440
  H      -1.759186     -3.763766     -0.736684
  H      -1.958947      0.574045     -1.343918
  H      -2.543920      1.445560      1.431841
  H      -3.643724      3.445117      0.394300
  H      -4.384784      1.919545     -0.165795
  H      -3.259879      2.811358     -1.225412
  H      -0.187782      1.995443      0.897627
  H      -0.695280      2.830543     -0.594422
  H      -1.150459      3.494667      0.996389
  H       0.560498     -1.201515      2.335861
  H       2.609305      0.128455      2.880982
  H       6.696558      0.993452      1.246678
  H       5.803049      0.209341     -0.088931
  H       5.651085     -0.419119      1.589723
  H       2.717437      1.268964     -2.551248
  H       4.271277      0.798469     -1.827295
  H       3.529647      2.337558     -1.369775
  H       1.064149     -0.232919     -1.815694
41
Coordinates from ORCA-job opt E -1527.698879144748
  C      -3.887739     -4.035940     -1.004510
  C      -2.710027     -3.390317     -0.315056
  O      -2.778720     -1.969032     -0.528728
  P      -1.883819     -0.973091      0.343795
  O      -2.083954     -1.006482      1.816752
  N      -2.114289      0.490866     -0.339615
  C      -2.291372      1.743315      0.404119
  C      -3.470542      2.522050     -0.170268
  C      -1.005363      2.567158      0.420505
  O      -0.401285     -1.509859     -0.120656
  C       0.721342     -0.788607      0.221690
  C       1.133471     -0.699013      1.548670
  C       2.271220      0.048115      1.840757
  C       2.993448      0.695227      0.832235
  S       4.422769      1.658483      1.296035
  C       5.758214      0.472551      0.983792
  C       2.570537      0.606856     -0.511037
  C       3.304878      1.294473     -1.630869
  C       1.427419     -0.147363     -0.793279
  H      -3.869313     -3.826739     -2.084214
  H      -4.835484     -3.662156     -0.590263
  H      -3.849894     -5.125524     -0.861759
  H      -2.723576     -3.589557      0.768633
  H      -1.755233     -3.761350     -0.720147
  H      -1.951969      0.578448     -1.339935
  H      -2.532695      1.448563      1.436855
  H      -3.643792      3.444613      0.403305
  H      -4.388268      1.916350     -0.143076
  H      -3.274919      2.804769     -1.217724
  H      -0.182233      2.002144      0.884467
  H      -0.702161      2.832958     -0.605559
  H      -1.147349      3.499997      0.986887
  H       0.562762     -1.199543      2.332340
  H       2.612383      0.132034      2.875577
  H       6.695591      0.978901      1.252772
  H       5.799537      0.184933     -0.075713
  H       5.638420     -0.421986      1.609987
  H       2.722298      1.257567     -2.561057
  H       4.276650      0.811920     -1.821595
  H       3.512636      2.344760     -1.381869
  H       1.060421     -0.230492     -1.819245
41
Coordinates from ORCA-job opt E -1527.698882703716
  C      -3.883481     -4.037091     -1.006319
  C      -2.708844     -3.390040     -0.312986
  O      -2.779575     -1.968648     -0.525477
  P      -1.883538     -0.972136      0.345135
  O      -2.081632     -1.005730      1.818359
  N      -2.115251      0.491714     -0.338045
  C      -2.291819      1.744480      0.405164
  C      -3.473714      2.521397     -0.166029
  C      -1.006763      2.569887      0.416970
  O      -0.401543     -1.508040     -0.121870
  C       0.721322     -0.786693      0.219860
  C       1.133941     -0.696785      1.546665
  C       2.272163      0.049870      1.838102
  C       2.994316      0.696185      0.829040
  S       4.425677      1.657274      1.291184
  C       5.757125      0.464230      0.988827
  C       2.570501      0.608041     -0.513990
  C       3.304203      1.296375     -1.633782
  C       1.426955     -0.145762     -0.795555
  H      -3.862404     -3.826939     -2.085777
  H      -4.832992     -3.665338     -0.594318
  H      -3.844137     -5.126727     -0.864377
  H      -2.725223     -3.589932      0.770524
  H      -1.752275     -3.758884     -0.715826
  H      -1.951014      0.579834     -1.338050
  H      -2.529666      1.450307      1.438889
  H      -3.646396      3.443965      0.407767
  H      -4.390690      1.914740     -0.135866
  H      -3.281472      2.804188     -1.214087
  H      -0.181619      2.006200      0.878948
  H      -0.706974      2.835157     -0.610237
  H      -1.148123      3.502946      0.983130
  H       0.563229     -1.196806      2.330661
  H       2.613903      0.134089      2.872709
  H       6.695971      0.967935      1.257581
  H       5.799717      0.171017     -0.069103
  H       5.631709     -0.426479      1.619338
  H       2.725802      1.251092     -2.566188
  H       4.280551      0.820730     -1.818071
  H       3.502662      2.349391     -1.388588
  H       1.059402     -0.229013     -1.821308
41
Coordinates from ORCA-job opt E -1527.698887850396
  C      -3.877053     -4.038887     -1.008213
  C      -2.705978     -3.389770     -0.310855
  O      -2.780389     -1.968210     -0.520754
  P      -1.883053     -0.970504      0.347157
  O      -2.077002     -1.005037      1.820883
  N      -2.118532      0.493025     -0.335123
  C      -2.294083      1.746051      0.407748
  C      -3.479009      2.521361     -0.159281
  C      -1.010168      2.573249      0.414184
  O      -0.401608     -1.504250     -0.124925
  C       0.721559     -0.782745      0.215917
  C       1.134758     -0.691640      1.542402
  C       2.273833      0.054395      1.832357
  C       2.996206      0.698584      0.822178
  S       4.430949      1.656149      1.281264
  C       5.755376      0.450461      0.998824
  C       2.571251      0.609841     -0.520487
  C       3.304503      1.298108     -1.640637
  C       1.426831     -0.143114     -0.800571
  H      -3.853918     -3.826743     -2.087227
  H      -4.828554     -3.670487     -0.597824
  H      -3.834956     -5.128649     -0.868087
  H      -2.724593     -3.591421      0.772288
  H      -1.747323     -3.754889     -0.712056
  H      -1.952664      0.581426     -1.334924
  H      -2.527786      1.452182      1.442542
  H      -3.651645      3.442945      0.416190
  H      -4.394889      1.913192     -0.127461
  H      -3.289994      2.806255     -1.207362
  H      -0.182663      2.011064      0.873771
  H      -0.714437      2.838259     -0.614247
  H      -1.150623      3.506299      0.980570
  H       0.564044     -1.189965      2.327471
  H       2.616185      0.139705      2.866679
  H       6.696355      0.949582      1.268643
  H       5.802191      0.146737     -0.055966
  H       5.619211     -0.433016      1.637211
  H       2.734505      1.236136     -2.577233
  H       4.289197      0.835267     -1.812006
  H       3.485295      2.356333     -1.404011
  H       1.058671     -0.227278     -1.826024
41
Coordinates from ORCA-job opt E -1527.698885261179
  C      -3.870284     -4.040744     -1.009328
  C      -2.702411     -3.389291     -0.308806
  O      -2.780820     -1.967705     -0.516278
  P      -1.882140     -0.968453      0.348706
  O      -2.070271     -1.004607      1.823131
  N      -2.123591      0.494755     -0.331747
  C      -2.297896      1.747338      0.412122
  C      -3.485092      2.522178     -0.150731
  C      -1.014803      2.575748      0.415140
  O      -0.401408     -1.499025     -0.130431
  C       0.722339     -0.777581      0.208863
  C       1.137112     -0.685088      1.534678
  C       2.277130      0.060654      1.822112
  C       2.999170      0.702264      0.810195
  S       4.437172      1.657134      1.265047
  C       5.753139      0.434857      1.016513
  C       2.572551      0.612035     -0.531868
  C       3.305311      1.298843     -1.653374
  C       1.426835     -0.139776     -0.809411
  H      -3.845725     -3.826863     -2.087977
  H      -4.823573     -3.675533     -0.600228
  H      -3.825298     -5.130583     -0.870739
  H      -2.722465     -3.592850      0.773977
  H      -1.741900     -3.750809     -0.708828
  H      -1.957417      0.583662     -1.331531
  H      -2.528300      1.452553      1.447419
  H      -3.658202      3.441763      0.427821
  H      -4.399881      1.912377     -0.119406
  H      -3.298197      2.810922     -1.198151
  H      -0.185557      2.014362      0.872631
  H      -0.722056      2.841414     -0.613950
  H      -1.154429      3.508318      0.982541
  H       0.567095     -1.181318      2.321567
  H       2.620338      0.147647      2.856044
  H       6.695986      0.929263      1.288588
  H       5.808404      0.113465     -0.032592
  H       5.601675     -0.436640      1.667815
  H       2.746340      1.214470     -2.594858
  H       4.300235      0.852583     -1.807894
  H       3.463329      2.363556     -1.429431
  H       1.057554     -0.225294     -1.834346
41
Coordinates from ORCA-job opt E -1527.698889012041
  C      -3.879149     -4.038882     -1.005464
  C      -2.704617     -3.390547     -0.313239
  O      -2.779401     -1.968958     -0.521986
  P      -1.882332     -0.971157      0.346214
  O      -2.073995     -1.008061      1.820136
  N      -2.121210      0.492609     -0.334261
  C      -2.294599      1.745354      0.409670
  C      -3.479615      2.522174     -0.155058
  C      -1.010349      2.572074      0.414735
  O      -0.400615     -1.502642     -0.129386
  C       0.722323     -0.781032      0.211923
  C       1.135132     -0.689057      1.538366
  C       2.274029      0.057658      1.827852
  C       2.996665      0.701071      0.817501
  S       4.431645      1.658656      1.275923
  C       5.753934      0.447629      1.007224
  C       2.572327      0.610873     -0.525288
  C       3.306009      1.298325     -1.645744
  C       1.427935     -0.142191     -0.804972
  H      -3.860918     -3.826174     -2.084471
  H      -4.828552     -3.670134     -0.590575
  H      -3.836831     -5.128727     -0.866091
  H      -2.718215     -3.593120      0.769826
  H      -1.747813     -3.755629     -0.718883
  H      -1.954705      0.580836     -1.334042
  H      -2.527094      1.450595      1.444500
  H      -3.652186      3.442079      0.423096
  H      -4.395331      1.913668     -0.125159
  H      -3.290694      2.810301     -1.202277
  H      -0.182569      2.009766      0.873647
  H      -0.715557      2.837216     -0.613899
  H      -1.149738      3.505023      0.981579
  H       0.564616     -1.186373      2.324190
  H       2.615737      0.143991      2.862326
  H       6.694786      0.945185      1.280462
  H       5.806519      0.138188     -0.045625
  H       5.611304     -0.431980      1.649550
  H       2.744016      1.221130     -2.586042
  H       4.297764      0.846666     -1.805191
  H       3.471040      2.361054     -1.417553
  H       1.060304     -0.227457     -1.830513
41
Coordinates from ORCA-job opt E -1527.698890427507
  C      -3.877130     -4.039805     -1.004801
  C      -2.703721     -3.390053     -0.311980
  O      -2.779066     -1.968750     -0.522184
  P      -1.882688     -0.970102      0.345895
  O      -2.074117     -1.006677      1.819859
  N      -2.122935      0.493386     -0.334848
  C      -2.296966      1.745793      0.409627
  C      -3.480681      2.523308     -0.156898
  C      -1.012401      2.572002      0.417431
  O      -0.400819     -1.500824     -0.129885
  C       0.722292     -0.779676      0.211518
  C       1.135827     -0.688955      1.537828
  C       2.275183      0.057094      1.827333
  C       2.997669      0.700800      0.817121
  S       4.433555      1.657298      1.275128
  C       5.754338      0.444570      1.006444
  C       2.572778      0.611711     -0.525503
  C       3.306782      1.299081     -1.645831
  C       1.427805     -0.140420     -0.805269
  H      -3.857796     -3.828262     -2.084026
  H      -4.827241     -3.671129     -0.591443
  H      -3.834351     -5.129471     -0.864180
  H      -2.718144     -3.591822      0.771236
  H      -1.746325     -3.755198     -0.716245
  H      -1.957238      0.581615     -1.334736
  H      -2.531339      1.450413      1.443839
  H      -3.653946      3.443099      0.421184
  H      -4.396578      1.914959     -0.128820
  H      -3.289924      2.811467     -1.203775
  H      -0.185644      2.009215      0.877615
  H      -0.715615      2.837444     -0.610555
  H      -1.152464      3.504890      0.984215
  H       0.565646     -1.186838      2.323536
  H       2.617331      0.142343      2.861759
  H       6.696059      0.941277      1.278265
  H       5.805444      0.133900     -0.046146
  H       5.611304     -0.434192      1.649850
  H       2.746287      1.219531     -2.586821
  H       4.299752      0.849368     -1.803118
  H       3.469267      2.362492     -1.418873
  H       1.059810     -0.224883     -1.830743
41
Coordinates from ORCA-job opt E -1527.698888994627
  C      -3.879396     -4.040179     -1.000075
  C      -2.702841     -3.390116     -0.312850
  O      -2.777733     -1.969185     -0.525257
  P      -1.882390     -0.970005      0.343437
  O      -2.073456     -1.007475      1.817422
  N      -2.124795      0.493575     -0.336645
  C      -2.298593      1.745252      0.409214
  C      -3.480806      2.524322     -0.158364
  C      -1.013382      2.570404      0.420045
  O      -0.400236     -1.499151     -0.133195
  C       0.722935     -0.778676      0.209030
  C       1.136996     -0.689868      1.535304
  C       2.276519      0.055749      1.825466
  C       2.998743      0.700661      0.815937
  S       4.434612      1.657119      1.274353
  C       5.754774      0.442919      1.009035
  C       2.573653      0.613159     -0.526676
  C       3.307717      1.301742     -1.646294
  C       1.428462     -0.138300     -0.807161
  H      -3.863944     -3.830638     -2.079766
  H      -4.827669     -3.669866     -0.583938
  H      -3.837039     -5.129622     -0.857608
  H      -2.713081     -3.590391      0.770707
  H      -1.747301     -3.756951     -0.720067
  H      -1.958579      0.582265     -1.336388
  H      -2.534831      1.448694      1.442647
  H      -3.654329      3.443659      0.420309
  H      -4.397082      1.916416     -0.132333
  H      -3.288347      2.813032     -1.204778
  H      -0.187821      2.006841      0.881446
  H      -0.714477      2.836252     -0.607230
  H      -1.153844      3.503190      0.986911
  H       0.567251     -1.188858      2.320628
  H       2.618675      0.139534      2.860021
  H       6.696708      0.939106      1.281117
  H       5.806657      0.130375     -0.042975
  H       5.610217     -0.434632      1.653776
  H       2.752197      1.214251     -2.589518
  H       4.304988      0.859518     -1.797055
  H       3.460527      2.367411     -1.422934
  H       1.060344     -0.221533     -1.832693
