29
Coordinates from ORCA-job opt E -976.886595650340
  C          -1.50727200521101     -0.55876335139221      3.01941312763362
  C          -1.76145824138422     -0.82426498673448      1.54170002050021
  N          -0.64743561688090     -0.39132413346461      0.68799447504966
  C          -0.72910409148285      1.00306507670955      0.24775805749421
  C          -1.52410759734640      1.15835819620776     -1.04102966262618
  C           0.34143242904703     -1.21896439717144      0.32946766718795
  C           0.24705953806315     -2.65787761454715      0.78158243840094
  N           1.38409457242077     -0.91803972989021     -0.39889948817391
  P           2.30076420459502      0.19960638209219     -1.05053900892090
  O           3.63560302323468     -0.20859070853164     -1.55298542348136
  F           2.51440284457132      1.34650928703209      0.07287751850094
  O           1.43126864116691      0.99473201289188     -2.14467078818742
  C           2.06371131447572      1.87178995200637     -3.07331470817056
  H          -2.38541211781780     -0.85606159232115      3.61077035033909
  H          -0.63872310062478     -1.12726365132473      3.38429536978398
  H          -1.31897132923573      0.50945624020125      3.20482964407229
  H          -1.97421771646607     -1.88466336923518      1.36389884306646
  H          -2.65371128203065     -0.27698185674920      1.20460014277123
  H           0.27754731812154      1.41886663653538      0.14685222532302
  H          -1.20501729890054      1.56716866190152      1.06314170194940
  H          -1.57612319021922      2.22076089976008     -1.32089187146690
  H          -1.03944060028455      0.61458448579563     -1.86304762049023
  H          -2.55315775169219      0.78603110319085     -0.92365940469040
  H          -0.61218172791062     -3.15524560454790      0.30661595492613
  H           0.12402445617330     -2.73792320897396      1.87039175180240
  H           1.16440038655353     -3.17427310500281      0.48364853023173
  H           1.30465865085496      2.16310677823426     -3.80907772812940
  H           2.89777280524806      1.36519582970984     -3.57949024501712
  H           2.43959348296155      2.77100579761803     -2.56223187967886
