29
Coordinates from ORCA-job opt E -976.860380709486
  C      -0.467267     -0.308119      2.978401
  C      -1.398390     -0.272242      1.775556
  N      -0.624942     -0.132439      0.533680
  C      -1.173765      0.827958     -0.434352
  C      -2.384086      0.256793     -1.157898
  C       0.183791     -1.161881      0.077338
  C      -0.335583     -2.585253      0.200577
  N       1.362237     -1.057217     -0.427562
  P       2.267082      0.236639     -0.610192
  O       3.745856      0.091439     -0.388569
  F       1.723332      1.342774      0.367429
  O       1.933390      0.886825     -2.055219
  C       2.682647      2.030688     -2.407410
  H      -1.047000     -0.368138      3.904740
  H       0.204156     -1.171638      2.943568
  H       0.151498      0.594657      3.019525
  H      -2.025262     -1.169943      1.748562
  H      -2.078726      0.578548      1.902681
  H      -0.418383      1.104212     -1.173764
  H      -1.450383      1.756818      0.078168
  H      -2.780431      0.989673     -1.867628
  H      -2.120495     -0.647217     -1.716386
  H      -3.183569     -0.002702     -0.456634
  H      -1.401057     -2.621866     -0.041946
  H      -0.182055     -2.942515      1.222306
  H       0.199359     -3.247649     -0.486749
  H       2.269440      2.450881     -3.327803
  H       3.726197      1.756314     -2.582811
  H       2.622410      2.784596     -1.617609
29
Coordinates from ORCA-job opt E -976.869917791412
  C      -0.592220     -0.436258      3.023039
  C      -1.438767     -0.338635      1.759492
  N      -0.601041     -0.149993      0.573762
  C      -1.046860      0.861049     -0.393297
  C      -2.234765      0.389611     -1.226535
  C       0.205167     -1.176044      0.149817
  C      -0.295036     -2.591609      0.340432
  N       1.374562     -1.040183     -0.394486
  P       2.274480      0.271561     -0.627741
  O       3.753122      0.111611     -0.502682
  F       1.794526      1.404754      0.374159
  O       1.829617      0.884820     -2.054554
  C       2.539884      2.025735     -2.526238
  H      -1.236751     -0.525213      3.909700
  H       0.073716     -1.312265      3.000169
  H       0.033892      0.460310      3.139053
  H      -2.084456     -1.228270      1.657427
  H      -2.109200      0.525945      1.850814
  H      -0.217279      1.128358     -1.062962
  H      -1.306067      1.780406      0.151612
  H      -2.543992      1.178777     -1.927572
  H      -1.976970     -0.504409     -1.814072
  H      -3.098866      0.141658     -0.591968
  H      -1.370092     -2.652913      0.122404
  H      -0.123255     -2.913552      1.378848
  H       0.249724     -3.268427     -0.326558
  H       2.030393      2.391983     -3.425504
  H       3.573368      1.755878     -2.785448
  H       2.543167      2.825315     -1.771109
29
Coordinates from ORCA-job opt E -976.873975314475
  C      -0.710164     -0.502092      3.035449
  C      -1.491777     -0.409524      1.729903
  N      -0.618012     -0.162637      0.583030
  C      -1.038716      0.890642     -0.347913
  C      -2.224261      0.472609     -1.211150
  C       0.214370     -1.164540      0.171646
  C      -0.217456     -2.583010      0.431664
  N       1.370200     -1.002912     -0.417100
  P       2.322673      0.287990     -0.668059
  O       3.783145      0.044937     -0.615133
  F       1.945073      1.440553      0.378980
  O       1.818357      0.922846     -2.060032
  C       2.543992      2.023722     -2.618118
  H      -1.398271     -0.622440      3.886516
  H      -0.017997     -1.359242      3.039943
  H      -0.118090      0.413279      3.192304
  H      -2.116489     -1.309567      1.582536
  H      -2.183323      0.443119      1.780279
  H      -0.199673      1.176454     -0.990374
  H      -1.287517      1.783615      0.246608
  H      -2.516136      1.300401     -1.876167
  H      -1.968082     -0.395973     -1.840262
  H      -3.100009      0.205544     -0.597180
  H      -1.292845     -2.705986      0.238517
  H      -0.019529     -2.864368      1.478973
  H       0.362507     -3.252099     -0.214034
  H       1.972437      2.381263     -3.483834
  H       3.544286      1.702941     -2.947056
  H       2.641309      2.844475     -1.889937
29
Coordinates from ORCA-job opt E -976.876509350446
  C      -0.921595     -0.618251      3.071033
  C      -1.575047     -0.493523      1.700454
  N      -0.608323     -0.204995      0.634748
  C      -0.913462      0.947107     -0.219010
  C      -2.061228      0.666696     -1.178990
  C       0.258621     -1.177895      0.235279
  C      -0.079538     -2.612192      0.529939
  N       1.376305     -0.972471     -0.413134
  P       2.295736      0.335391     -0.730472
  O       3.753799      0.126044     -0.668104
  F       1.885602      1.527534      0.277206
  O       1.750540      0.888992     -2.136667
  C       2.440147      1.955044     -2.802075
  H      -1.688966     -0.758857      3.846543
  H      -0.232582     -1.473647      3.126532
  H      -0.351395      0.294083      3.304252
  H      -2.191172     -1.378258      1.470618
  H      -2.263886      0.363433      1.703617
  H      -0.022790      1.237768     -0.780356
  H      -1.149667      1.793394      0.444737
  H      -2.269502      1.563580     -1.781399
  H      -1.805043     -0.155685     -1.866378
  H      -2.985217      0.395659     -0.644308
  H      -1.142455     -2.817290      0.346475
  H       0.137611     -2.867742      1.577959
  H       0.553503     -3.245692     -0.101327
  H       1.829182      2.228063     -3.670456
  H       3.434925      1.624038     -3.134183
  H       2.545898      2.829673     -2.142535
29
Coordinates from ORCA-job opt E -976.878648481799
  C      -1.037380     -0.578548      3.062161
  C      -1.616238     -0.536092      1.654686
  N      -0.611147     -0.239487      0.620334
  C      -0.893077      0.950094     -0.191128
  C      -2.047594      0.713383     -1.152890
  C       0.284913     -1.187135      0.238971
  C       0.009620     -2.624861      0.589314
  N       1.371447     -0.986318     -0.460349
  P       2.342941      0.273968     -0.800526
  O       3.780752     -0.033972     -0.898223
  F       2.127249      1.420191      0.322894
  O       1.695151      0.961059     -2.096758
  C       2.394492      1.992933     -2.801300
  H      -1.843292     -0.727026      3.794957
  H      -0.315700     -1.395591      3.194916
  H      -0.526784      0.368219      3.292059
  H      -2.181987     -1.450632      1.422325
  H      -2.343418      0.285816      1.594257
  H      -0.005022      1.244786     -0.748304
  H      -1.112153      1.777115      0.500937
  H      -2.246299      1.631166     -1.725295
  H      -1.800581     -0.088811     -1.864933
  H      -2.972523      0.436849     -0.625424
  H      -1.039554     -2.892419      0.411611
  H       0.233339     -2.834981      1.644477
  H       0.677762     -3.247042     -0.015103
  H       1.713421      2.350888     -3.581275
  H       3.311846      1.593273     -3.255372
  H       2.649815      2.823176     -2.127018
29
Coordinates from ORCA-job opt E -976.880557264943
  C      -1.153167     -0.632716      3.044233
  C      -1.673308     -0.640411      1.614967
  N      -0.652121     -0.272073      0.617324
  C      -0.928441      0.995496     -0.072985
  C      -2.062689      0.840241     -1.075318
  C       0.283600     -1.158375      0.224468
  C       0.111868     -2.591459      0.668688
  N       1.347605     -0.944215     -0.506553
  P       2.345599      0.270650     -0.883276
  O       3.778864     -0.073932     -0.979790
  F       2.172388      1.431974      0.234764
  O       1.722337      0.977202     -2.179412
  C       2.469145      1.942089     -2.923631
  H      -1.977272     -0.849625      3.738671
  H      -0.370601     -1.384567      3.214234
  H      -0.738914      0.354296      3.295754
  H      -2.147188     -1.598265      1.356540
  H      -2.468513      0.111592      1.530150
  H      -0.041949      1.354072     -0.588805
  H      -1.166563      1.749662      0.691444
  H      -2.264766      1.807309     -1.558291
  H      -1.786396      0.116878     -1.856208
  H      -2.993011      0.499769     -0.599207
  H      -0.913938     -2.951052      0.514390
  H       0.350505     -2.716702      1.734544
  H       0.819971     -3.199986      0.098931
  H       1.805998      2.305263     -3.716233
  H       3.362888      1.476416     -3.360900
  H       2.768069      2.780468     -2.278495
29
Coordinates from ORCA-job opt E -976.882597599484
  C      -1.217957     -0.567976      3.035050
  C      -1.694363     -0.695485      1.596148
  N      -0.664231     -0.331678      0.606735
  C      -0.887555      0.977486     -0.023047
  C      -1.974811      0.902314     -1.086976
  C       0.282988     -1.193442      0.221155
  C       0.153147     -2.623008      0.705781
  N       1.323805     -0.967420     -0.539475
  P       2.320402      0.222859     -0.938344
  O       3.744061     -0.138104     -1.139351
  F       2.243682      1.335554      0.235777
  O       1.650828      1.011330     -2.162695
  C       2.395786      1.968184     -2.914795
  H      -2.049128     -0.795689      3.717652
  H      -0.394051     -1.254927      3.272665
  H      -0.877521      0.457676      3.239270
  H      -2.092296     -1.696053      1.380091
  H      -2.536330     -0.007723      1.451249
  H       0.028429      1.345071     -0.483457
  H      -1.144105      1.696673      0.768238
  H      -2.135873      1.898287     -1.524079
  H      -1.669842      0.218731     -1.892469
  H      -2.933995      0.553200     -0.679586
  H      -0.855263     -3.028041      0.547991
  H       0.379778     -2.701102      1.778701
  H       0.885252     -3.226839      0.162462
  H       1.715312      2.376978     -3.669813
  H       3.253151      1.484878     -3.403102
  H       2.750700      2.778265     -2.261778
29
Coordinates from ORCA-job opt E -976.884452643553
  C      -1.275762     -0.495101      3.021246
  C      -1.716347     -0.751229      1.587084
  N      -0.684486     -0.391776      0.605160
  C      -0.841268      0.955811      0.046024
  C      -1.823638      0.971789     -1.118403
  C       0.275480     -1.238279      0.231899
  C       0.178531     -2.663123      0.740175
  N       1.291535     -0.991092     -0.559260
  P       2.276534      0.176820     -0.991524
  O       3.679134     -0.186630     -1.322991
  F       2.306142      1.240723      0.226287
  O       1.552149      1.038168     -2.136670
  C       2.286839      1.989271     -2.904562
  H      -2.101228     -0.736250      3.706982
  H      -0.407089     -1.105798      3.309034
  H      -1.013147      0.564071      3.164314
  H      -2.026178     -1.791616      1.433362
  H      -2.602472     -0.139112      1.373117
  H       0.117885      1.342893     -0.299696
  H      -1.165835      1.621661      0.858940
  H      -1.938552      1.998757     -1.494640
  H      -1.444080      0.345843     -1.940050
  H      -2.819326      0.601852     -0.830992
  H      -0.801581     -3.116914      0.541886
  H       0.351590     -2.695533      1.826351
  H       0.956368     -3.253981      0.246974
  H       1.587057      2.432991     -3.622351
  H       3.109223      1.496652     -3.442821
  H       2.692521      2.779132     -2.254879
29
Coordinates from ORCA-job opt E -976.885515861677
  C      -1.374566     -0.452080      3.016427
  C      -1.739495     -0.804599      1.580372
  N      -0.691596     -0.427771      0.623804
  C      -0.800468      0.950100      0.137695
  C      -1.648131      1.044201     -1.123814
  C       0.278703     -1.264471      0.254122
  C       0.215975     -2.683700      0.774199
  N       1.264531     -1.001535     -0.572400
  P       2.245721      0.138660     -1.060008
  O       3.604132     -0.247833     -1.522586
  F       2.406225      1.167950      0.179010
  O       1.467309      1.056758     -2.127286
  C       2.180064      1.995925     -2.929266
  H      -2.207048     -0.716095      3.685192
  H      -0.477696     -0.991153      3.356496
  H      -1.186748      0.627581      3.119880
  H      -1.966260     -1.870681      1.472425
  H      -2.653558     -0.268775      1.287947
  H       0.188158      1.365109     -0.062229
  H      -1.224929      1.552627      0.953717
  H      -1.730915      2.094315     -1.439733
  H      -1.174785      0.477455     -1.939638
  H      -2.665683      0.653169     -0.970358
  H      -0.733505     -3.180198      0.531913
  H       0.332287     -2.691139      1.868425
  H       1.039396     -3.249189      0.327387
  H       1.453572      2.455016     -3.610442
  H       2.966116      1.492456     -3.510281
  H       2.633194      2.777899     -2.300970
29
Coordinates from ORCA-job opt E -976.885513027456
  C      -1.391317     -0.415238      3.039694
  C      -1.741639     -0.805065      1.608645
  N      -0.691977     -0.435711      0.651721
  C      -0.768981      0.940719      0.159795
  C      -1.483824      1.039774     -1.180325
  C       0.263020     -1.291568      0.266767
  C       0.197464     -2.711366      0.771353
  N       1.235299     -1.012400     -0.569170
  P       2.205712      0.124302     -1.087321
  O       3.529501     -0.263847     -1.636077
  F       2.441263      1.130103      0.158304
  O       1.386478      1.070471     -2.104600
  C       2.079674      2.022535     -2.907658
  H      -2.220618     -0.674570      3.713893
  H      -0.487878     -0.940165      3.384758
  H      -1.213201      0.667587      3.124431
  H      -1.944330     -1.879116      1.536514
  H      -2.660572     -0.295648      1.280751
  H       0.233978      1.372074      0.089073
  H      -1.294563      1.522290      0.929825
  H      -1.551945      2.092833     -1.490294
  H      -0.922624      0.494196     -1.952359
  H      -2.504910      0.630449     -1.128488
  H      -0.735260     -3.211011      0.473856
  H       0.256839     -2.726620      1.870014
  H       1.046128     -3.265292      0.358540
  H       1.340439      2.479177     -3.577146
  H       2.864839      1.534324     -3.502691
  H       2.533006      2.806783     -2.281805
29
Coordinates from ORCA-job opt E -976.886112567638
  C      -1.353731     -0.424165      3.045942
  C      -1.727202     -0.797657      1.616939
  N      -0.693093     -0.423082      0.643374
  C      -0.800760      0.944033      0.129889
  C      -1.608851      1.017421     -1.158436
  C       0.259802     -1.278143      0.249243
  C       0.185523     -2.702040      0.741348
  N       1.248542     -0.998429     -0.565693
  P       2.232551      0.144260     -1.060796
  O       3.581627     -0.248005     -1.536765
  F       2.403832      1.175016      0.175604
  O       1.450802      1.062743     -2.129875
  C       2.167057      2.012353     -2.915817
  H      -2.174796     -0.685201      3.729487
  H      -0.449469     -0.958277      3.374083
  H      -1.166739      0.656493      3.138220
  H      -1.940909     -1.869916      1.538260
  H      -2.647970     -0.279138      1.310564
  H       0.197891      1.372509     -0.009534
  H      -1.276066      1.540508      0.920937
  H      -1.689964      2.063581     -1.488528
  H      -1.112781      0.447915     -1.955737
  H      -2.627283      0.622440     -1.019343
  H      -0.749059     -3.191912      0.432801
  H       0.239142     -2.734043      1.839700
  H       1.034473     -3.254252      0.327182
  H       1.451119      2.449353     -3.622611
  H       2.983156      1.525082     -3.468548
  H       2.583155      2.810551     -2.281890
29
Coordinates from ORCA-job opt E -976.886215002427
  C      -1.405353     -0.460385      3.045357
  C      -1.741485     -0.817207      1.604210
  N      -0.690583     -0.415085      0.658925
  C      -0.806545      0.964810      0.179574
  C      -1.590116      1.054070     -1.121925
  C       0.272091     -1.252027      0.262614
  C       0.213059     -2.676664      0.760624
  N       1.251757     -0.977183     -0.563592
  P       2.242476      0.145688     -1.088229
  O       3.580549     -0.274775     -1.570934
  F       2.445590      1.188973      0.134630
  O       1.458928      1.062675     -2.154902
  C       2.173916      1.985833     -2.971469
  H      -2.239015     -0.743129      3.704085
  H      -0.502713     -0.987793      3.388015
  H      -1.235173      0.620860      3.158984
  H      -1.939248     -1.889790      1.502814
  H      -2.663943     -0.307944      1.289470
  H       0.185279      1.412008      0.073108
  H      -1.308502      1.534965      0.973925
  H      -1.681186      2.105862     -1.429818
  H      -1.069871      0.510477     -1.922131
  H      -2.603816      0.640760     -1.009778
  H      -0.712883     -3.178322      0.444773
  H       0.258254     -2.711195      1.858602
  H       1.071977     -3.217349      0.352716
  H       1.452973      2.413595     -3.678291
  H       2.977589      1.476117     -3.521673
  H       2.605994      2.792153     -2.359685
29
Coordinates from ORCA-job opt E -976.886350903919
  C      -1.389143     -0.453706      3.053321
  C      -1.736848     -0.807008      1.614028
  N      -0.687436     -0.411930      0.665307
  C      -0.800664      0.962154      0.168728
  C      -1.579198      1.037245     -1.136463
  C       0.267267     -1.256361      0.261681
  C       0.198098     -2.684353      0.748494
  N       1.250394     -0.976371     -0.557162
  P       2.237448      0.151245     -1.079435
  O       3.577772     -0.263746     -1.560431
  F       2.432740      1.196669      0.141820
  O       1.450460      1.062586     -2.149037
  C       2.164053      1.991957     -2.959925
  H      -2.220313     -0.730119      3.717953
  H      -0.488340     -0.989834      3.387774
  H      -1.208066      0.625737      3.167405
  H      -1.941834     -1.878629      1.515573
  H      -2.657290     -0.291602      1.302485
  H       0.192911      1.407098      0.065938
  H      -1.307895      1.541235      0.953306
  H      -1.666559      2.085208     -1.458333
  H      -1.060107      0.481651     -1.929545
  H      -2.594182      0.628584     -1.018597
  H      -0.723486     -3.178692      0.408294
  H       0.220865     -2.729815      1.846803
  H       1.062668     -3.224334      0.351529
  H       1.447440      2.407680     -3.678297
  H       2.981864      1.490998     -3.497301
  H       2.577379      2.806455     -2.345911
29
Coordinates from ORCA-job opt E -976.886406288918
  C      -1.392827     -0.458776      3.057670
  C      -1.737064     -0.803882      1.615520
  N      -0.682215     -0.407892      0.673936
  C      -0.793322      0.965275      0.172897
  C      -1.567776      1.036417     -1.135053
  C       0.269760     -1.253611      0.265907
  C       0.195381     -2.684487      0.745125
  N       1.254897     -0.970045     -0.547963
  P       2.238994      0.155928     -1.078137
  O       3.578120     -0.261095     -1.560900
  F       2.437461      1.207954      0.136581
  O       1.445785      1.060673     -2.148062
  C       2.154341      1.988216     -2.965862
  H      -2.227049     -0.735164      3.718612
  H      -0.495191     -1.000615      3.391612
  H      -1.206993      0.619156      3.177962
  H      -1.945123     -1.874528      1.511380
  H      -2.654877     -0.284290      1.303149
  H       0.201446      1.409711      0.075587
  H      -1.304663      1.546646      0.953091
  H      -1.652108      2.082960     -1.462376
  H      -1.049877      0.475758     -1.925299
  H      -2.583796      0.630748     -1.015039
  H      -0.716776     -3.176353      0.376162
  H       0.189426     -2.740259      1.842935
  H       1.070159     -3.219986      0.364575
  H       1.438561      2.386067     -3.695088
  H       2.982448      1.490225     -3.490094
  H       2.552877      2.815249     -2.358830
29
Coordinates from ORCA-job opt E -976.886445437746
  C      -1.407545     -0.470220      3.059141
  C      -1.739412     -0.804862      1.611484
  N      -0.675541     -0.403954      0.682674
  C      -0.783695      0.970668      0.184177
  C      -1.558341      1.046065     -1.123687
  C       0.277593     -1.248074      0.273820
  C       0.199347     -2.681503      0.746128
  N       1.265264     -0.960906     -0.534634
  P       2.245030      0.161230     -1.078358
  O       3.582125     -0.259183     -1.564333
  F       2.450352      1.223588      0.126154
  O       1.443406      1.056740     -2.148546
  C       2.143826      1.977595     -2.981383
  H      -2.248043     -0.749563      3.710936
  H      -0.513757     -1.015680      3.397490
  H      -1.220729      0.606528      3.188042
  H      -1.948370     -1.874469      1.496758
  H      -2.653919     -0.281670      1.295598
  H       0.212743      1.412497      0.088883
  H      -1.293732      1.552112      0.965196
  H      -1.639000      2.093012     -1.450685
  H      -1.044145      0.483846     -1.915125
  H      -2.575740      0.644090     -1.002053
  H      -0.699781     -3.172849      0.344915
  H       0.159759     -2.747245      1.842339
  H       1.086495     -3.211043      0.386215
  H       1.426598      2.352060     -3.721459
  H       2.980902      1.480196     -3.491733
  H       2.528311      2.820993     -2.387954
29
Coordinates from ORCA-job opt E -976.886479931076
  C      -1.429719     -0.488905      3.057010
  C      -1.744225     -0.808150      1.601842
  N      -0.668780     -0.399996      0.689704
  C      -0.772448      0.977883      0.199763
  C      -1.552357      1.065517     -1.104442
  C       0.289264     -1.240699      0.284608
  C       0.209521     -2.675858      0.751784
  N       1.281480     -0.949573     -0.515943
  P       2.254881      0.167664     -1.077894
  O       3.589965     -0.255689     -1.567548
  F       2.468122      1.244279      0.112690
  O       1.443035      1.050093     -2.149890
  C       2.132374      1.959986     -3.004175
  H      -2.279076     -0.772189      3.695504
  H      -0.541466     -1.039117      3.402076
  H      -1.242233      0.586231      3.197741
  H      -1.954889     -1.875747      1.471472
  H      -2.653880     -0.279060      1.281969
  H       0.226318      1.413912      0.101414
  H      -1.274550      1.558234      0.986832
  H      -1.627767      2.114587     -1.425818
  H      -1.045178      0.504196     -1.900935
  H      -2.571859      0.669255     -0.981225
  H      -0.672851     -3.169828      0.317145
  H       0.133432     -2.749763      1.845152
  H       1.110592     -3.198010      0.416303
  H       1.411973      2.305502     -3.755150
  H       2.977997      1.462058     -3.499640
  H       2.502323      2.823187     -2.430348
29
Coordinates from ORCA-job opt E -976.886504469532
  C      -1.448665     -0.508320      3.053108
  C      -1.748904     -0.812018      1.591513
  N      -0.664473     -0.396466      0.693171
  C      -0.764423      0.984661      0.213198
  C      -1.549155      1.086185     -1.087186
  C       0.299910     -1.233721      0.295218
  C       0.219268     -2.669578      0.759055
  N       1.297601     -0.939746     -0.496988
  P       2.264305      0.173576     -1.076076
  O       3.598239     -0.250598     -1.568642
  F       2.482582      1.263816      0.101284
  O       1.443686      1.042399     -2.151974
  C       2.122992      1.941899     -3.024951
  H      -2.305463     -0.795190      3.679901
  H      -0.565382     -1.063377      3.402998
  H      -1.260426      0.565136      3.205241
  H      -1.961304     -1.877500      1.446400
  H      -2.654203     -0.276937      1.269425
  H       0.236110      1.415503      0.110886
  H      -1.258367      1.562629      1.007296
  H      -1.620190      2.138056     -1.400288
  H      -1.046743      0.528353     -1.889093
  H      -2.570538      0.694375     -0.965462
  H      -0.650591     -3.166627      0.302728
  H       0.118619     -2.747580      1.849912
  H       1.129488     -3.186864      0.441151
  H       1.399375      2.263148     -3.783592
  H       2.974750      1.443576     -3.509327
  H       2.481902      2.821211     -2.468906
29
Coordinates from ORCA-job opt E -976.886525996467
  C      -1.462917     -0.526748      3.047187
  C      -1.753639     -0.815306      1.580628
  N      -0.662529     -0.393972      0.692626
  C      -0.758517      0.990305      0.223079
  C      -1.546783      1.106154     -1.073897
  C       0.308232     -1.228462      0.303858
  C       0.227959     -2.663857      0.767762
  N       1.313030     -0.932455     -0.478343
  P       2.272496      0.178609     -1.072639
  O       3.606036     -0.244020     -1.567757
  F       2.492640      1.280714      0.093356
  O       1.443736      1.033910     -2.153377
  C       2.113794      1.925124     -3.041271
  H      -2.325620     -0.815491      3.664883
  H      -0.584475     -1.087970      3.399306
  H      -1.271950      0.544712      3.209806
  H      -1.969200     -1.878357      1.422639
  H      -2.654755     -0.273435      1.258375
  H       0.243437      1.416491      0.117205
  H      -1.245164      1.565227      1.024037
  H      -1.613835      2.161144     -1.377259
  H      -1.047155      0.553298     -1.880999
  H      -2.569968      0.718099     -0.955864
  H      -0.634707     -3.164975      0.302214
  H       0.115521     -2.741200      1.857448
  H       1.143008     -3.178685      0.459978
  H       1.386642      2.227765     -3.804233
  H       2.969406      1.426978     -3.518974
  H       2.465278      2.816403     -2.499777
29
Coordinates from ORCA-job opt E -976.886544659045
  C      -1.471577     -0.540450      3.041759
  C      -1.756431     -0.817368      1.571870
  N      -0.660817     -0.391822      0.691080
  C      -0.753985      0.994565      0.228850
  C      -1.544005      1.120740     -1.066013
  C       0.315100     -1.224687      0.311182
  C       0.232235     -2.660095      0.773502
  N       1.327854     -0.927327     -0.460049
  P       2.279513      0.183564     -1.067328
  O       3.613338     -0.235659     -1.564280
  F       2.498082      1.295749      0.089214
  O       1.442913      1.025425     -2.153395
  C       2.104879      1.911457     -3.051799
  H      -2.338274     -0.830213      3.653321
  H      -0.596861     -1.107136      3.394380
  H      -1.277651      0.529228      3.212604
  H      -1.974535     -1.878602      1.404887
  H      -2.654401     -0.270315      1.249747
  H       0.248820      1.418068      0.121492
  H      -1.236656      1.566784      1.034275
  H      -1.608598      2.178157     -1.361502
  H      -1.045401      0.572376     -1.876835
  H      -2.568418      0.735009     -0.951420
  H      -0.629447     -3.161839      0.306907
  H       0.117918     -2.736216      1.863195
  H       1.147620     -3.175747      0.468254
  H       1.374053      2.201640     -3.816169
  H       2.962408      1.414152     -3.527010
  H       2.452325      2.810563     -2.520720
29
Coordinates from ORCA-job opt E -976.886561994909
  C      -1.479105     -0.550299      3.035106
  C      -1.759015     -0.818904      1.562811
  N      -0.659089     -0.390967      0.688224
  C      -0.748833      0.997698      0.232959
  C      -1.540236      1.133300     -1.060083
  C       0.321128     -1.222609      0.316271
  C       0.235949     -2.658092      0.778053
  N       1.343418     -0.923822     -0.441489
  P       2.286243      0.188238     -1.061186
  O       3.620220     -0.227023     -1.560422
  F       2.502442      1.309356      0.086952
  O       1.440765      1.016945     -2.151316
  C       2.094524      1.899307     -3.058754
  H      -2.349087     -0.840492      3.641791
  H      -0.607633     -1.121676      3.388247
  H      -1.282386      0.517827      3.212427
  H      -1.979082     -1.878717      1.389854
  H      -2.654355     -0.268088      1.239893
  H       0.254891      1.418903      0.126101
  H      -1.229029      1.567210      1.041889
  H      -1.602313      2.192879     -1.348450
  H      -1.043513      0.588763     -1.874614
  H      -2.565797      0.750213     -0.947203
  H      -0.628018     -3.159829      0.316112
  H       0.126159     -2.731923      1.868577
  H       1.149761     -3.175458      0.471088
  H       1.358505      2.182123     -3.820941
  H       2.951015      1.402115     -3.536049
  H       2.442472      2.803022     -2.535846
29
Coordinates from ORCA-job opt E -976.886579544850
  C      -1.486989     -0.555123      3.029696
  C      -1.760071     -0.820422      1.555506
  N      -0.655697     -0.390344      0.687600
  C      -0.742852      1.000208      0.237275
  C      -1.534745      1.142264     -1.054871
  C       0.328095     -1.220641      0.321560
  C       0.237687     -2.657820      0.778040
  N       1.359794     -0.920100     -0.422292
  P       2.293005      0.193694     -1.054707
  O       3.626902     -0.218266     -1.556157
  F       2.507068      1.323936      0.084597
  O       1.437873      1.009107     -2.147700
  C       2.083520      1.888195     -3.064018
  H      -2.359584     -0.847157      3.631781
  H      -0.617131     -1.127687      3.385029
  H      -1.290876      0.512405      3.211204
  H      -1.978819     -1.880075      1.379882
  H      -2.654083     -0.269517      1.229103
  H       0.261704      1.420243      0.133400
  H      -1.223024      1.567461      1.047872
  H      -1.594805      2.203207     -1.338810
  H      -1.040523      0.599803     -1.872217
  H      -2.561122      0.761503     -0.941436
  H      -0.629556     -3.155801      0.318573
  H       0.131735     -2.733259      1.869059
  H       1.149329     -3.177198      0.468063
  H       1.341024      2.167326     -3.821271
  H       2.936370      1.389697     -3.546549
  H       2.435772      2.794358     -2.548212
29
Coordinates from ORCA-job opt E -976.886587080886
  C      -1.496087     -0.555923      3.024759
  C      -1.761431     -0.822183      1.549260
  N      -0.652698     -0.391329      0.687446
  C      -0.736797      1.001334      0.242196
  C      -1.529000      1.149335     -1.049189
  C       0.333460     -1.220054      0.324210
  C       0.241321     -2.658591      0.777682
  N       1.371833     -0.917731     -0.409281
  P       2.297609      0.197329     -1.051252
  O       3.630916     -0.213445     -1.554890
  F       2.512255      1.334152      0.081418
  O       1.434707      1.004146     -2.143942
  C       2.073938      1.880334     -3.067919
  H      -2.370938     -0.849906      3.622652
  H      -0.626896     -1.127032      3.384082
  H      -1.302779      0.511842      3.207708
  H      -1.977463     -1.882253      1.373521
  H      -2.654842     -0.273234      1.217945
  H       0.268824      1.419746      0.141728
  H      -1.216741      1.566752      1.054222
  H      -1.586251      2.211161     -1.330392
  H      -1.038404      0.607341     -1.868912
  H      -2.556284      0.771535     -0.933948
  H      -0.626585     -3.155035      0.318130
  H       0.136012     -2.735908      1.868727
  H       1.153002     -3.177539      0.467071
  H       1.324690      2.160334     -3.818112
  H       2.920631      1.378618     -3.557888
  H       2.433997      2.786204     -2.557032
29
Coordinates from ORCA-job opt E -976.886593312616
  C      -1.501258     -0.555349      3.023256
  C      -1.761370     -0.823234      1.547033
  N      -0.650381     -0.391592      0.688817
  C      -0.733395      1.001851      0.245244
  C      -1.525829      1.151995     -1.045813
  C       0.336817     -1.219431      0.326362
  C       0.242790     -2.659093      0.776461
  N       1.377263     -0.916488     -0.403877
  P       2.299412      0.199240     -1.050238
  O       3.632801     -0.211255     -1.554061
  F       2.514529      1.339925      0.078592
  O       1.433195      1.001835     -2.142570
  C       2.069479      1.876753     -3.070251
  H      -2.377192     -0.851206      3.618634
  H      -0.631765     -1.124124      3.385514
  H      -1.311175      0.512956      3.206312
  H      -1.974713     -1.883936      1.371706
  H      -2.654886     -0.276467      1.212385
  H       0.272780      1.419391      0.146105
  H      -1.212924      1.566886      1.057777
  H      -1.581339      2.213869     -1.327112
  H      -1.037512      0.609002     -1.866174
  H      -2.553630      0.775985     -0.929137
  H      -0.623565     -3.153854      0.312135
  H       0.133028     -2.739354      1.866833
  H       1.155653     -3.177278      0.468041
  H       1.316613      2.158363     -3.816153
  H       2.912296      1.372865     -3.564576
  H       2.434278      2.781748     -2.561247
29
Coordinates from ORCA-job opt E -976.886595604779
  C      -1.504863     -0.556032      3.021707
  C      -1.761723     -0.824041      1.544898
  N      -0.649281     -0.391911      0.688923
  C      -0.731319      1.002220      0.247301
  C      -1.524492      1.154930     -1.042998
  C       0.338698     -1.219214      0.327361
  C       0.244916     -2.658930      0.777488
  N       1.380089     -0.916250     -0.401588
  P       2.300179      0.199850     -1.050341
  O       3.633856     -0.210497     -1.553831
  F       2.515738      1.343079      0.076085
  O       1.432428      0.999970     -2.142534
  C       2.066943      1.874395     -3.072188
  H      -2.381677     -0.852917      3.615257
  H      -0.635428     -1.123751      3.385710
  H      -1.316518      0.512499      3.205205
  H      -1.973951     -1.884876      1.369195
  H      -2.655040     -0.277985      1.208570
  H       0.275274      1.418741      0.148117
  H      -1.209458      1.566804      1.060983
  H      -1.578343      2.216994     -1.323798
  H      -1.038022      0.611449     -1.864112
  H      -2.552827      0.780560     -0.925744
  H      -0.618834     -3.154440      0.309029
  H       0.130328     -2.739843      1.867255
  H       1.159619     -3.175941      0.472568
  H       1.311574      2.158030     -3.814744
  H       2.906707      1.368909     -3.569984
  H       2.435426      2.778199     -2.563789
29
Coordinates from ORCA-job opt E -976.886595584203
  C      -1.506506     -0.556902      3.020720
  C      -1.761601     -0.824368      1.543492
  N      -0.648387     -0.391813      0.688759
  C      -0.730074      1.002538      0.247996
  C      -1.524000      1.156694     -1.041635
  C       0.340099     -1.219088      0.328394
  C       0.245976     -2.658624      0.778819
  N       1.381956     -0.916770     -0.400309
  P       2.300475      0.199958     -1.050430
  O       3.634729     -0.209673     -1.553234
  F       2.515496      1.345102      0.074369
  O       1.431951      0.997877     -2.143196
  C       2.065339      1.873044     -3.073062
  H      -2.383888     -0.854348      3.613130
  H      -0.637196     -1.124285      3.385522
  H      -1.318973      0.511677      3.204785
  H      -1.973483     -1.885188      1.367208
  H      -2.654639     -0.278332      1.206404
  H       0.276661      1.418510      0.148146
  H      -1.207026      1.566934      1.062529
  H      -1.576739      2.218854     -1.322232
  H      -1.038620      0.612783     -1.863119
  H      -2.552734      0.783469     -0.924231
  H      -0.615705     -3.154655      0.306994
  H       0.127299     -2.739641      1.868089
  H       1.161926     -3.175210      0.476957
  H       1.308199      2.159363     -3.812757
  H       2.902701      1.366875     -3.574158
  H       2.436764      2.775219     -2.563951
29
Coordinates from ORCA-job opt E -976.886598342981
  C      -1.507254     -0.558158      3.019795
  C      -1.761559     -0.824412      1.542219
  N      -0.647799     -0.391563      0.688233
  C      -0.729360      1.002890      0.248060
  C      -1.524004      1.158095     -1.040969
  C       0.341031     -1.219011      0.329107
  C       0.246844     -2.658144      0.780610
  N       1.383405     -0.917531     -0.399361
  P       2.300668      0.199792     -1.050520
  O       3.635385     -0.208979     -1.552896
  F       2.514883      1.346284      0.073203
  O       1.431560      0.995808     -2.144128
  C       2.064209      1.872060     -3.073466
  H      -2.385132     -0.855673      3.611427
  H      -0.638347     -1.126058      3.384751
  H      -1.319512      0.510242      3.204723
  H      -1.973852     -1.884995      1.365013
  H      -2.654137     -0.277706      1.205027
  H       0.277372      1.418621      0.147510
  H      -1.205455      1.567046      1.063291
  H      -1.576032      2.220416     -1.321103
  H      -1.039257      0.614152     -1.862821
  H      -2.553024      0.785662     -0.923625
  H      -0.613115     -3.155098      0.306541
  H       0.125106     -2.738565      1.869549
  H       1.163794     -3.174508      0.481424
  H       1.305735      2.161335     -3.810627
  H       2.899457      1.365537     -3.577724
  H       2.438388      2.772461     -2.563244
29
Coordinates from ORCA-job opt E -976.886595650340
  C      -1.507272     -0.558763      3.019413
  C      -1.761458     -0.824265      1.541700
  N      -0.647436     -0.391324      0.687994
  C      -0.729104      1.003065      0.247758
  C      -1.524108      1.158358     -1.041030
  C       0.341432     -1.218964      0.329468
  C       0.247060     -2.657878      0.781582
  N       1.384095     -0.918040     -0.398899
  P       2.300764      0.199606     -1.050539
  O       3.635603     -0.208591     -1.552985
  F       2.514403      1.346509      0.072878
  O       1.431269      0.994732     -2.144671
  C       2.063711      1.871790     -3.073315
  H      -2.385412     -0.856062      3.610770
  H      -0.638723     -1.127264      3.384295
  H      -1.318971      0.509456      3.204830
  H      -1.974218     -1.884663      1.363899
  H      -2.653711     -0.276982      1.204600
  H       0.277547      1.418867      0.146852
  H      -1.205017      1.567169      1.063142
  H      -1.576123      2.220761     -1.320892
  H      -1.039441      0.614584     -1.863048
  H      -2.553158      0.786031     -0.923659
  H      -0.612182     -3.155246      0.306616
  H       0.124024     -2.737923      1.870392
  H       1.164400     -3.174273      0.483649
  H       1.304659      2.163107     -3.809078
  H       2.897773      1.365196     -3.579490
  H       2.439593      2.771006     -2.562232
