32
Coordinates from ORCA-job opt E -1016.178433549749
  C           4.15145907920471      0.50831037274022      2.09848666146702
  C           3.89138633239877      0.82185691689153      0.64450753158580
  O           2.50183012734720      0.58443193582663      0.36961620270579
  P           1.88246474735503      0.93643745946869     -1.07043357774565
  O           2.35072283536880      2.21297721286573     -1.65769972264496
  F           2.47023607166920     -0.28636909538955     -1.95158237589056
  N           0.29330330437791      0.72762326747264     -0.94957850517811
  C          -0.38160296627209     -0.31305750407756     -0.51240659188450
  C           0.26006729237630     -1.61414756734466     -0.10014962169218
  N          -1.70958055132417     -0.20155305268653     -0.40537927316787
  C          -2.57313088954185     -1.26539174892526      0.11147426734429
  C          -3.14439417822851     -2.15511432093444     -0.98448620681884
  C          -2.37576559006338      1.04767538561789     -0.77878514936323
  C          -2.40409414971335      2.05594118832609      0.36167540574610
  H           3.92260887483149     -0.54471341911841      2.31895299876682
  H           3.53419517797560      1.14551476181261      2.74881418044189
  H           5.20954526057150      0.69120172474454      2.33542253665297
  H           4.50071668541153      0.18206454446341     -0.01486773603879
  H           4.12576189732099      1.87224478331480      0.41053225930250
  H           0.35402566645469     -1.64138208653551      0.99652363994374
  H           1.26059012750901     -1.69982627969338     -0.53369055663850
  H          -0.33086821765357     -2.48233249209695     -0.41445024978515
  H          -3.38724524228475     -0.77258677951861      0.66348599618136
  H          -2.02288574277317     -1.85664561428883      0.85427186828395
  H          -3.82150736516476     -2.90334317341168     -0.54736995290274
  H          -3.71719996564418     -1.56421433275455     -1.71504061308603
  H          -2.34714771031223     -2.68736618674340     -1.52487292511669
  H          -3.39753955324895      0.78851006883606     -1.09228782073711
  H          -1.85662998384515      1.46597646542353     -1.65043058075798
  H          -1.38247218285368      2.34590120610390      0.64683992653113
  H          -2.94749963399087      2.96117526764811      0.05323831097578
  H          -2.90934954725806      1.64020109196296      1.24694321351972
