32
Coordinates from ORCA-job opt E -1016.168055310622
  C       4.336559      0.212428      1.962326
  C       3.902256      0.792266      0.632246
  O       2.495779      0.669493      0.522399
  P       1.857138      1.043918     -0.915566
  O       2.376373      2.347892     -1.447700
  F       2.397586     -0.122067     -1.824019
  N       0.279958      0.835802     -0.851802
  C      -0.383949     -0.195590     -0.432748
  C       0.335244     -1.428685      0.090437
  N      -1.778304     -0.164784     -0.421011
  C      -2.619421     -1.224364      0.136789
  C      -3.030078     -2.209182     -0.947249
  C      -2.497736      1.020069     -0.911477
  C      -2.611458      2.073118      0.180435
  H       4.046273     -0.840858      2.036631
  H       3.847131      0.736466      2.789946
  H       5.420219      0.289802      2.086966
  H       4.385301      0.252442     -0.188575
  H       4.178821      1.849583      0.574607
  H       0.416205     -1.354006      1.178617
  H       1.334644     -1.531854     -0.332385
  H      -0.207669     -2.340302     -0.166178
  H      -3.521712     -0.792997      0.587533
  H      -2.109231     -1.748111      0.952094
  H      -3.647446     -3.005910     -0.520827
  H      -3.611489     -1.713111     -1.731360
  H      -2.159228     -2.669988     -1.423397
  H      -3.503899      0.740929     -1.247011
  H      -1.997586      1.441159     -1.791527
  H      -1.625849      2.411121      0.515713
  H      -3.160751      2.944277     -0.189895
  H      -3.143679      1.681045      1.053261
32
Coordinates from ORCA-job opt E -1016.176457005760
  C       4.341707      0.263971      1.951946
  C       3.911651      0.859358      0.628666
  O       2.502082      0.667198      0.477750
  P       1.841012      1.036471     -0.949315
  O       2.296121      2.357073     -1.473019
  F       2.417103     -0.115445     -1.881197
  N       0.262496      0.786051     -0.844246
  C      -0.403906     -0.249281     -0.404179
  C       0.230087     -1.510584      0.136036
  N      -1.744767     -0.185206     -0.410972
  C      -2.604268     -1.244937      0.108171
  C      -3.061750     -2.209056     -0.982712
  C      -2.407861      1.026109     -0.886873
  C      -2.544663      2.077632      0.209058
  H       4.113613     -0.812052      1.986092
  H       3.805781      0.743021      2.785105
  H       5.421395      0.400459      2.102859
  H       4.445111      0.368326     -0.201335
  H       4.136913      1.936828      0.598602
  H       0.311119     -1.427855      1.230091
  H       1.227694     -1.665110     -0.281266
  H      -0.368672     -2.397918     -0.105768
  H      -3.483062     -0.778026      0.576227
  H      -2.094272     -1.789149      0.914937
  H      -3.708995     -2.990226     -0.556912
  H      -3.632610     -1.682196     -1.762212
  H      -2.205593     -2.701513     -1.467424
  H      -3.403583      0.752592     -1.264664
  H      -1.854287      1.435982     -1.743014
  H      -1.559295      2.393017      0.581444
  H      -3.065176      2.967074     -0.176394
  H      -3.121123      1.687392      1.061790
32
Coordinates from ORCA-job opt E -1016.177790926716
  C       4.304282      0.237341      1.966085
  C       3.904968      0.860465      0.647992
  O       2.497247      0.654043      0.453302
  P       1.840526      1.050922     -0.966040
  O       2.285389      2.372858     -1.476792
  F       2.421571     -0.101814     -1.913935
  N       0.259521      0.800777     -0.849538
  C      -0.400749     -0.249424     -0.420246
  C       0.258720     -1.506784      0.086907
  N      -1.733315     -0.185401     -0.403900
  C      -2.595089     -1.239868      0.125841
  C      -3.073809     -2.215951     -0.944552
  C      -2.406181      1.018392     -0.881412
  C      -2.537975      2.089182      0.195589
  H       4.094491     -0.843594      1.966070
  H       3.744800      0.694039      2.797295
  H       5.379240      0.385997      2.145000
  H       4.463825      0.398315     -0.183540
  H       4.114802      1.942615      0.642819
  H       0.332897     -1.455845      1.184847
  H       1.269307     -1.603196     -0.325871
  H      -0.304140     -2.406691     -0.184785
  H      -3.460270     -0.746216      0.593880
  H      -2.082372     -1.769356      0.938102
  H      -3.738301     -2.972721     -0.500835
  H      -3.633800     -1.692812     -1.735504
  H      -2.227021     -2.738894     -1.416546
  H      -3.401830      0.718504     -1.242200
  H      -1.856595      1.408723     -1.747272
  H      -1.547669      2.420274      0.543042
  H      -3.072856      2.965513     -0.201190
  H      -3.099614      1.710607      1.064658
32
Coordinates from ORCA-job opt E -1016.178215094735
  C       4.275496      0.263559      1.992398
  C       3.913752      0.854435      0.650808
  O       2.507960      0.650691      0.429018
  P       1.860406      1.024844     -0.997570
  O       2.315416      2.320025     -1.552611
  F       2.433118     -0.172818     -1.911744
  N       0.274654      0.799297     -0.868038
  C      -0.392378     -0.246898     -0.428237
  C       0.271392     -1.509433      0.056915
  N      -1.725385     -0.177876     -0.394120
  C      -2.580495     -1.245265      0.126471
  C      -3.082332     -2.197404     -0.951752
  C      -2.413464      1.026572     -0.859647
  C      -2.557091      2.087080      0.223532
  H       4.061705     -0.815435      2.014917
  H       3.706066      0.750100      2.798507
  H       5.347676      0.410846      2.187858
  H       4.483182      0.368615     -0.158939
  H       4.127173      1.934697      0.615484
  H       0.363017     -1.471055      1.153664
  H       1.277842     -1.591394     -0.367190
  H      -0.293418     -2.408864     -0.213106
  H      -3.430624     -0.751601      0.620778
  H      -2.049755     -1.788424      0.918742
  H      -3.751747     -2.949558     -0.509686
  H      -3.643723     -1.655961     -1.728410
  H      -2.248049     -2.725208     -1.438667
  H      -3.403149      0.709375     -1.221235
  H      -1.861020      1.425020     -1.719420
  H      -1.569428      2.428527      0.566196
  H      -3.104838      2.956526     -0.168739
  H      -3.111960      1.696984      1.091095
32
Coordinates from ORCA-job opt E -1016.178304910920
  C       4.253443      0.298396      2.013188
  C       3.908507      0.860442      0.655368
  O       2.505430      0.653836      0.422053
  P       1.864474      1.010061     -1.009839
  O       2.322294      2.292366     -1.589787
  F       2.441815     -0.207394     -1.902142
  N       0.277328      0.789314     -0.882101
  C      -0.390068     -0.260004     -0.450656
  C       0.272495     -1.531189      0.017991
  N      -1.722954     -0.180305     -0.397852
  C      -2.579449     -1.245862      0.128149
  C      -3.093113     -2.190261     -0.949741
  C      -2.408353      1.032715     -0.849170
  C      -2.534330      2.081853      0.246171
  H       4.038971     -0.779394      2.055982
  H       3.677538      0.803960      2.802232
  H       5.323680      0.448604      2.216376
  H       4.483731      0.356543     -0.138585
  H       4.122630      1.939197      0.596930
  H       0.371963     -1.505228      1.114228
  H       1.275140     -1.612455     -0.412055
  H      -0.298310     -2.425640     -0.255900
  H      -3.421884     -0.750102      0.633335
  H      -2.042531     -1.794213      0.912437
  H      -3.767265     -2.936544     -0.505379
  H      -3.652989     -1.643103     -1.722982
  H      -2.265579     -2.724278     -1.440609
  H      -3.402014      0.724634     -1.206280
  H      -1.856199      1.435520     -1.707617
  H      -1.540922      2.413965      0.580778
  H      -3.081112      2.957614     -0.132571
  H      -3.082367      1.686954      1.115321
32
Coordinates from ORCA-job opt E -1016.178329175387
  C       4.244705      0.325529      2.022204
  C       3.907149      0.860324      0.651535
  O       2.504861      0.653821      0.416357
  P       1.866714      0.996041     -1.018483
  O       2.327909      2.269474     -1.616203
  F       2.444965     -0.234060     -1.896220
  N       0.278861      0.781149     -0.888777
  C      -0.389695     -0.265352     -0.454457
  C       0.267731     -1.541931      0.007966
  N      -1.722647     -0.180623     -0.397822
  C      -2.581562     -1.246505      0.124093
  C      -3.093715     -2.185273     -0.959419
  C      -2.403696      1.038349     -0.839798
  C      -2.523810      2.076602      0.266716
  H       4.027400     -0.750646      2.085765
  H       3.666768      0.848399      2.798301
  H       5.314436      0.477012      2.227057
  H       4.483185      0.337932     -0.129728
  H       4.125043      1.936909      0.571544
  H       0.371304     -1.519448      1.103877
  H       1.267618     -1.630418     -0.426552
  H      -0.311151     -2.431421     -0.264910
  H      -3.424240     -0.753297      0.631193
  H      -2.045464     -1.799245      0.905793
  H      -3.771215     -2.931824     -0.520282
  H      -3.649968     -1.633940     -1.732292
  H      -2.265867     -2.718731     -1.450192
  H      -3.398627      0.738749     -1.200287
  H      -1.848838      1.447567     -1.693386
  H      -1.528490      2.402231      0.601959
  H      -3.069106      2.957838     -0.101693
  H      -3.070555      1.674789      1.133415
32
Coordinates from ORCA-job opt E -1016.178339513996
  C       4.233385      0.339288      2.028690
  C       3.902890      0.857539      0.649813
  O       2.502034      0.648995      0.409469
  P       1.867989      0.990540     -1.026082
  O       2.330531      2.263406     -1.625636
  F       2.450804     -0.239690     -1.902531
  N       0.279867      0.776704     -0.898534
  C      -0.388702     -0.268957     -0.463470
  C       0.266013     -1.545876      0.001317
  N      -1.721516     -0.181785     -0.400910
  C      -2.579734     -1.247049      0.122562
  C      -3.094570     -2.184092     -0.961685
  C      -2.401629      1.040168     -0.834879
  C      -2.510979      2.073954      0.277481
  H       4.016806     -0.736427      2.103454
  H       3.649830      0.869947      2.795325
  H       5.301691      0.494276      2.238285
  H       4.482830      0.325375     -0.121991
  H       4.121903      1.933065      0.558587
  H       0.366094     -1.522533      1.097596
  H       1.266423     -1.638496     -0.431265
  H      -0.314727     -2.433991     -0.272185
  H      -3.421501     -0.755371      0.632439
  H      -2.041870     -1.801507      0.902001
  H      -3.772298     -2.930971     -0.523154
  H      -3.651633     -1.630954     -1.732820
  H      -2.268081     -2.717027     -1.455335
  H      -3.399854      0.746107     -1.190926
  H      -1.850977      1.451962     -1.689761
  H      -1.512267      2.396896      0.605372
  H      -3.058734      2.957742     -0.081461
  H      -3.050018      1.668766      1.147509
32
Coordinates from ORCA-job opt E -1016.178347861858
  C       4.223906      0.359736      2.037326
  C       3.900800      0.855107      0.648255
  O       2.500788      0.644777      0.404471
  P       1.869751      0.981986     -1.032789
  O       2.334022      2.252482     -1.636937
  F       2.454081     -0.251032     -1.905171
  N       0.281289      0.770783     -0.905418
  C      -0.388022     -0.273767     -0.468962
  C       0.264687     -1.553524     -0.010099
  N      -1.720388     -0.183878     -0.401580
  C      -2.579869     -1.248485      0.120323
  C      -3.098772     -2.181477     -0.965878
  C      -2.398471      1.041753     -0.827114
  C      -2.497892      2.071610      0.290178
  H       4.006652     -0.714636      2.128906
  H       3.635705      0.902742      2.791755
  H       5.291024      0.518098      2.250345
  H       4.483808      0.309083     -0.111526
  H       4.122144      1.928675      0.540561
  H       0.363071     -1.535323      1.086442
  H       1.265242     -1.646506     -0.442704
  H      -0.317455     -2.439249     -0.288629
  H      -3.420224     -0.756741      0.632388
  H      -2.042591     -1.806466      0.897677
  H      -3.778086     -2.928041     -0.529230
  H      -3.655335     -1.624307     -1.734594
  H      -2.274384     -2.714848     -1.462692
  H      -3.399805      0.753021     -1.178863
  H      -1.851852      1.455593     -1.683606
  H      -1.496094      2.391465      0.611792
  H      -3.047136      2.957965     -0.060151
  H      -3.030593      1.663407      1.162797
32
Coordinates from ORCA-job opt E -1016.178380534143
  C       4.188787      0.435301      2.067856
  C       3.894083      0.846746      0.645360
  O       2.497304      0.629642      0.388714
  P       1.877147      0.952383     -1.055346
  O       2.346547      2.215531     -1.672403
  F       2.466942     -0.289126     -1.913633
  N       0.287511      0.748247     -0.930428
  C      -0.385164     -0.293508     -0.491751
  C       0.260222     -1.583500     -0.053469
  N      -1.715291     -0.192482     -0.404742
  C      -2.578388     -1.255369      0.112621
  C      -3.118936     -2.169440     -0.979802
  C      -2.386379      1.046375     -0.799661
  C      -2.449635      2.062195      0.333562
  H       3.967302     -0.631407      2.220417
  H       3.585266      1.022778      2.775550
  H       5.251610      0.605407      2.292656
  H       4.487522      0.252601     -0.068937
  H       4.124290      1.910822      0.478251
  H       0.353626     -1.583916      1.043661
  H       1.260989     -1.676761     -0.485918
  H      -0.326724     -2.460692     -0.349244
  H      -3.409590     -0.762753      0.638511
  H      -2.039615     -1.828700      0.877779
  H      -3.801786     -2.915064     -0.547250
  H      -3.677605     -1.595225     -1.734554
  H      -2.305764     -2.704020     -1.493772
  H      -3.398622      0.775404     -1.133997
  H      -1.854860      1.466589     -1.662645
  H      -1.437268      2.369938      0.633423
  H      -3.001837      2.957635      0.012310
  H      -2.961684      1.644368      1.214154
32
Coordinates from ORCA-job opt E -1016.178117752997
  C       4.065627      0.698445      2.141263
  C       3.871660      0.812618      0.647905
  O       2.485885      0.578193      0.349255
  P       1.902891      0.856424     -1.116460
  O       2.388866      2.097050     -1.768934
  F       2.511583     -0.409244     -1.929299
  N       0.309615      0.672440     -1.003598
  C      -0.375773     -0.360647     -0.562036
  C       0.241021     -1.684295     -0.192147
  N      -1.696514     -0.222174     -0.413055
  C      -2.574987     -1.279218      0.085336
  C      -3.187707     -2.121460     -1.028061
  C      -2.337342      1.058293     -0.707123
  C      -2.285236      2.018739      0.475064
  H       3.809060     -0.311093      2.496169
  H       3.427544      1.423747      2.667982
  H       5.114989      0.901605      2.398788
  H       4.486066      0.071393      0.110640
  H       4.148300      1.815418      0.285827
  H       0.316963     -1.747487      0.904486
  H       1.242546     -1.780178     -0.622521
  H      -0.363274     -2.529136     -0.544088
  H      -3.372728     -0.785731      0.659831
  H      -2.033347     -1.906727      0.804722
  H      -3.882729     -2.864012     -0.610316
  H      -3.751051     -1.488447     -1.731085
  H      -2.414331     -2.656394     -1.600350
  H      -3.379885      0.845934     -0.986294
  H      -1.849626      1.502703     -1.584146
  H      -1.243876      2.283318      0.710464
  H      -2.835230      2.943803      0.248272
  H      -2.738982      1.566118      1.370782
32
Coordinates from ORCA-job opt E -1016.178398761006
  C       4.157403      0.503188      2.092634
  C       3.890282      0.831206      0.643136
  O       2.495709      0.611438      0.376314
  P       1.882695      0.932340     -1.071304
  O       2.353435      2.195522     -1.687491
  F       2.477486     -0.307635     -1.927659
  N       0.292616      0.729626     -0.948758
  C      -0.382199     -0.310737     -0.508989
  C       0.258034     -1.609954     -0.091465
  N      -1.710192     -0.200757     -0.405070
  C      -2.576014     -1.263294      0.107573
  C      -3.138285     -2.157430     -0.990485
  C      -2.375620      1.048215     -0.776307
  C      -2.408746      2.054296      0.366841
  H       3.924265     -0.550636      2.305599
  H       3.545732      1.136380      2.752309
  H       5.217501      0.678960      2.325635
  H       4.488986      0.190159     -0.024633
  H       4.133828      1.881408      0.417518
  H       0.344836     -1.630880      1.005969
  H       1.260183     -1.699215     -0.521292
  H      -0.330536     -2.479510     -0.406631
  H      -3.397273     -0.770296      0.648569
  H      -2.034508     -1.851855      0.859066
  H      -3.822203     -2.903423     -0.560498
  H      -3.701369     -1.566809     -1.729181
  H      -2.336654     -2.691584     -1.522834
  H      -3.396503      0.790325     -1.094319
  H      -1.857274      1.471568     -1.645940
  H      -1.388324      2.351226      0.649824
  H      -2.960618      2.956880      0.066016
  H      -2.906671      1.631279      1.253125
32
Coordinates from ORCA-job opt E -1016.178409124047
  C       4.169559      0.470009      2.083349
  C       3.891055      0.838708      0.645878
  O       2.497728      0.611189      0.379702
  P       1.880014      0.942910     -1.064348
  O       2.348779      2.210907     -1.670961
  F       2.471488     -0.291387     -1.929844
  N       0.290426      0.737093     -0.941497
  C      -0.383494     -0.304094     -0.502929
  C       0.259508     -1.599798     -0.077678
  N      -1.712372     -0.197342     -0.405162
  C      -2.576002     -1.259920      0.112359
  C      -3.131601     -2.163255     -0.981072
  C      -2.380748      1.046884     -0.788707
  C      -2.423615      2.060207      0.347201
  H       3.948429     -0.592120      2.265197
  H       3.556083      1.077035      2.765497
  H       5.229255      0.649406      2.315529
  H       4.493335      0.225082     -0.044094
  H       4.121553      1.897786      0.450088
  H       0.349679     -1.614006      1.019576
  H       1.261213     -1.688950     -0.508347
  H      -0.328100     -2.472553     -0.385492
  H      -3.399553     -0.766203      0.649290
  H      -2.032954     -1.841353      0.868237
  H      -3.812807     -2.909131     -0.546509
  H      -3.695920     -1.580758     -1.725086
  H      -2.326280     -2.697880     -1.507202
  H      -3.398758      0.782586     -1.110445
  H      -1.857760      1.465391     -1.657889
  H      -1.405839      2.360202      0.636161
  H      -2.973564      2.959870      0.034224
  H      -2.928736      1.643483      1.232249
32
Coordinates from ORCA-job opt E -1016.178422455552
  C       4.163081      0.484172      2.088821
  C       3.890669      0.834643      0.645619
  O       2.498152      0.605444      0.377055
  P       1.881092      0.939325     -1.067205
  O       2.350166      2.208188     -1.671325
  F       2.472158     -0.293865     -1.933713
  N       0.291514      0.733228     -0.945180
  C      -0.382911     -0.307560     -0.506688
  C       0.259393     -1.605191     -0.085961
  N      -1.711387     -0.198898     -0.405290
  C      -2.575074     -1.261963      0.111552
  C      -3.136143     -2.160268     -0.983086
  C      -2.378819      1.047372     -0.784385
  C      -2.415961      2.058490      0.353545
  H       3.938631     -0.574878      2.283902
  H       3.548796      1.101947      2.760481
  H       5.222416      0.664003      2.322364
  H       4.494437      0.211332     -0.034313
  H       4.123479      1.890725      0.436895
  H       0.350523     -1.623731      1.011147
  H       1.260737     -1.693432     -0.517555
  H      -0.329427     -2.476279     -0.396219
  H      -3.395531     -0.768602      0.653550
  H      -2.029857     -1.847046      0.863008
  H      -3.816257     -2.906943     -0.548145
  H      -3.703052     -1.574359     -1.722388
  H      -2.333666     -2.694069     -1.514335
  H      -3.398354      0.785317     -1.103016
  H      -1.857641      1.466162     -1.654547
  H      -1.396674      2.354943      0.640701
  H      -2.964010      2.960220      0.043166
  H      -2.920479      1.641574      1.238818
32
Coordinates from ORCA-job opt E -1016.178434108712
  C       4.147427      0.516206      2.100741
  C       3.890182      0.822055      0.644602
  O       2.500568      0.585598      0.369022
  P       1.883054      0.933492     -1.072781
  O       2.351413      2.208638     -1.663052
  F       2.472779     -0.291083     -1.950200
  N       0.293783      0.724879     -0.952382
  C      -0.381564     -0.315393     -0.514660
  C       0.258729     -1.617928     -0.104744
  N      -1.709251     -0.202368     -0.405417
  C      -2.573289     -1.266118      0.110632
  C      -3.145486     -2.154178     -0.986173
  C      -2.374316      1.048397     -0.775460
  C      -2.397951      2.055023      0.366522
  H       3.916730     -0.535201      2.326918
  H       3.529728      1.157925      2.746205
  H       5.205323      0.699101      2.338476
  H       4.499359      0.177467     -0.010220
  H       4.126765      1.870732      0.405265
  H       0.351871     -1.647373      0.991932
  H       1.259196     -1.704180     -0.538057
  H      -0.333176     -2.484760     -0.421086
  H      -3.386995     -0.773393      0.663333
  H      -2.023321     -1.858597      0.852618
  H      -3.823010     -2.902496     -0.549889
  H      -3.718049     -1.561831     -1.715756
  H      -2.348758     -2.686304     -1.527528
  H      -3.397350      0.791494     -1.086696
  H      -1.856935      1.467122     -1.647968
  H      -1.375117      2.342982      0.649365
  H      -2.940970      2.961525      0.061201
  H      -2.901372      1.638568      1.252510
32
Coordinates from ORCA-job opt E -1016.178433549749
  C       4.151459      0.508310      2.098487
  C       3.891386      0.821857      0.644508
  O       2.501830      0.584432      0.369616
  P       1.882465      0.936437     -1.070434
  O       2.350723      2.212977     -1.657700
  F       2.470236     -0.286369     -1.951582
  N       0.293303      0.727623     -0.949579
  C      -0.381603     -0.313058     -0.512407
  C       0.260067     -1.614148     -0.100150
  N      -1.709581     -0.201553     -0.405379
  C      -2.573131     -1.265392      0.111474
  C      -3.144394     -2.155114     -0.984486
  C      -2.375766      1.047675     -0.778785
  C      -2.404094      2.055941      0.361675
  H       3.922609     -0.544713      2.318953
  H       3.534195      1.145515      2.748814
  H       5.209545      0.691202      2.335423
  H       4.500717      0.182065     -0.014868
  H       4.125762      1.872245      0.410532
  H       0.354026     -1.641382      0.996524
  H       1.260590     -1.699826     -0.533691
  H      -0.330868     -2.482332     -0.414450
  H      -3.387245     -0.772587      0.663486
  H      -2.022886     -1.856646      0.854272
  H      -3.821507     -2.903343     -0.547370
  H      -3.717200     -1.564214     -1.715041
  H      -2.347148     -2.687366     -1.524873
  H      -3.397540      0.788510     -1.092288
  H      -1.856630      1.465976     -1.650431
  H      -1.382472      2.345901      0.646840
  H      -2.947500      2.961175      0.053238
  H      -2.909350      1.640201      1.246943
