27
Coordinates from ORCA-job opt E -876.482072553278
  C           3.63711880381744      0.16332606922094     -1.39928685449782
  C           2.96222420502877     -0.11106840552854     -0.07812135512272
  O           1.54021461687876      0.06281229506624     -0.25268170780330
  P           0.52700877022614     -0.00714338784754      0.97674892086784
  O           0.79442654693027      0.86234046750184      2.14775606698113
  C           0.72939610315145     -1.74989030076369      1.47944016601632
  N           0.84625913162962     -2.84602131627145      1.83033192913505
  N          -0.95525763485043      0.10270223358826      0.30430669701106
  C          -1.96221167320248      0.98269164601006      0.91053598018941
  C          -2.02100586274596      2.35879308831700      0.26298155591653
  C          -1.31424673687313     -0.62968578818315     -0.91598955886435
  C          -2.25486962526226     -1.80140135937353     -0.66773136382140
  H           4.72389983015938      0.03975045447289     -1.28935457271701
  H           3.43465747907275      1.19116057324474     -1.73313873328440
  H           3.28370135327278     -0.53658625017174     -2.17014000222151
  H           3.15445470854834     -1.14272214437305      0.26089884562997
  H           3.30566855045091      0.58142446135304      0.70537395773942
  H          -1.73984199353665      1.07813045171053      1.98253867700122
  H          -2.93640057368891      0.47509708713470      0.83861987707555
  H          -2.23178123926541      2.28894562747893     -0.81504784614243
  H          -1.06512636277024      2.88818383576910      0.39481614907098
  H          -2.81696567445491      2.96212839936462      0.72449428843742
  H          -1.76363738424056      0.08486330645671     -1.62489537761877
  H          -0.38696603880883     -0.98178044763033     -1.39022279732163
  H          -2.48006615642536     -2.30574456887935     -1.61898851762901
  H          -1.80131369793107     -2.53859950044412      0.01172329522371
  H          -3.20933946511043     -1.47170653722310     -0.23088236925129
