27
Coordinates from ORCA-job opt E -876.463211208833
  C       3.680561      1.182697     -0.664254
  C       2.741353      0.381605      0.213309
  O       1.481411      0.297575     -0.431987
  P       0.346511     -0.625877      0.259398
  O       0.397345     -0.595492      1.759974
  C       0.877955     -2.334528     -0.181983
  N       1.204160     -3.411927     -0.481717
  N      -1.092701     -0.244952     -0.459152
  C      -1.737578      1.007589     -0.040198
  C      -0.886707      2.239169     -0.323367
  C      -2.093163     -1.311613     -0.602278
  C      -2.675636     -1.817493      0.712239
  H       4.665574      1.276333     -0.198621
  H       3.278252      2.184959     -0.845392
  H       3.795905      0.704417     -1.642537
  H       3.144288     -0.622509      0.376846
  H       2.618208      0.878153      1.180811
  H      -1.977303      0.977460      1.028848
  H      -2.681748      1.144574     -0.581868
  H      -0.562143      2.266873     -1.368698
  H      -0.003617      2.276465      0.321125
  H      -1.468765      3.146373     -0.129485
  H      -2.909831     -0.973965     -1.252857
  H      -1.643656     -2.154780     -1.138193
  H      -3.387149     -2.626262      0.515105
  H      -1.898221     -2.215460      1.371142
  H      -3.213304     -1.029385      1.247875
27
Coordinates from ORCA-job opt E -876.470651640203
  C       3.662201      1.161904     -0.739013
  C       2.773264      0.379671      0.202258
  O       1.468145      0.288875     -0.383442
  P       0.348652     -0.590171      0.368048
  O       0.418639     -0.535736      1.861819
  C       0.805755     -2.290941     -0.109964
  N       1.084984     -3.366555     -0.428935
  N      -1.075473     -0.233872     -0.382524
  C      -1.724176      1.039318     -0.004980
  C      -0.881965      2.280577     -0.283984
  C      -2.029338     -1.339455     -0.601247
  C      -2.711633     -1.877470      0.655105
  H       4.672787      1.256883     -0.319246
  H       3.254344      2.169599     -0.909185
  H       3.730918      0.660972     -1.716294
  H       3.181455     -0.632015      0.364613
  H       2.698100      0.886581      1.175798
  H      -2.014637      1.026314      1.059658
  H      -2.650313      1.121655     -0.590333
  H      -0.518734      2.287319     -1.321847
  H      -0.016836      2.352844      0.390553
  H      -1.492967      3.181863     -0.130742
  H      -2.790964     -0.991264     -1.313868
  H      -1.509950     -2.162804     -1.118573
  H      -3.391670     -2.698391      0.384284
  H      -1.981211     -2.272227      1.377410
  H      -3.309376     -1.103474      1.158714
27
Coordinates from ORCA-job opt E -876.472737285456
  C       3.612137      1.187550     -0.785517
  C       2.782646      0.394755      0.195800
  O       1.450996      0.263606     -0.345558
  P       0.355372     -0.590037      0.450884
  O       0.445457     -0.510888      1.935647
  C       0.755700     -2.277212     -0.073950
  N       1.002645     -3.351061     -0.419362
  N      -1.058275     -0.252423     -0.326616
  C      -1.695105      1.036783      0.014020
  C      -0.830765      2.259105     -0.261507
  C      -1.995213     -1.358617     -0.597053
  C      -2.748882     -1.886700      0.618623
  H       4.633763      1.307200     -0.396456
  H       3.177699      2.186808     -0.942364
  H       3.664474      0.674777     -1.758001
  H       3.213536     -0.609303      0.355789
  H       2.721433      0.900595      1.171708
  H      -2.027395      1.041257      1.068553
  H      -2.601350      1.085762     -0.607891
  H      -0.443825      2.245094     -1.291588
  H       0.023597      2.331334      0.428898
  H      -1.439138      3.166057     -0.130184
  H      -2.705465     -0.980033     -1.348625
  H      -1.448429     -2.174783     -1.093554
  H      -3.428394     -2.695070      0.308992
  H      -2.061589     -2.293888      1.378261
  H      -3.355631     -1.100670      1.095138
27
Coordinates from ORCA-job opt E -876.473066000872
  C       3.605674      1.195008     -0.802228
  C       2.792984      0.399913      0.189997
  O       1.463444      0.233616     -0.349645
  P       0.367282     -0.597594      0.466962
  O       0.468540     -0.486750      1.946653
  C       0.749546     -2.294861     -0.042384
  N       0.988667     -3.375132     -0.376275
  N      -1.049573     -0.261786     -0.312965
  C      -1.688838      1.029800      0.023575
  C      -0.828350      2.254619     -0.247049
  C      -1.993971     -1.355632     -0.605059
  C      -2.762471     -1.884186      0.599354
  H       4.624247      1.338005     -0.413608
  H       3.154121      2.184111     -0.969932
  H       3.669658      0.669451     -1.766303
  H       3.239151     -0.593977      0.364327
  H       2.717689      0.915304      1.159321
  H      -2.030048      1.033182      1.074588
  H      -2.592073      1.072788     -0.603506
  H      -0.439397      2.244961     -1.275658
  H       0.024243      2.328161      0.443859
  H      -1.441415      3.157770     -0.113078
  H      -2.692054     -0.957292     -1.357962
  H      -1.452138     -2.170022     -1.106162
  H      -3.453466     -2.678205      0.279360
  H      -2.084598     -2.308597      1.357248
  H      -3.356853     -1.092652      1.080659
27
Coordinates from ORCA-job opt E -876.473326483710
  C       3.585194      1.221851     -0.823674
  C       2.803870      0.404813      0.174815
  O       1.478369      0.191785     -0.358820
  P       0.379312     -0.606162      0.485500
  O       0.493891     -0.442624      1.956948
  C       0.736692     -2.322862      0.013409
  N       0.967247     -3.413683     -0.293552
  N      -1.042502     -0.276979     -0.294583
  C      -1.678263      1.019788      0.033700
  C      -0.804101      2.235789     -0.225515
  C      -1.994873     -1.354608     -0.616312
  C      -2.787857     -1.880423      0.572100
  H       4.600759      1.395053     -0.439939
  H       3.105171      2.197195     -0.988440
  H       3.661587      0.695368     -1.785557
  H       3.277292     -0.574893      0.350703
  H       2.711848      0.918639      1.142883
  H      -2.033044      1.025003      1.079372
  H      -2.573899      1.070108     -0.603300
  H      -0.412370      2.230850     -1.252642
  H       0.047673      2.293757      0.467488
  H      -1.408103      3.143425     -0.083793
  H      -2.673679     -0.938605     -1.376802
  H      -1.454394     -2.170628     -1.115603
  H      -3.490196     -2.658826      0.239953
  H      -2.124866     -2.321961      1.332701
  H      -3.370758     -1.081168      1.053044
27
Coordinates from ORCA-job opt E -876.473536569092
  C       3.575409      1.229104     -0.853174
  C       2.819988      0.394778      0.150679
  O       1.495765      0.153178     -0.372274
  P       0.387123     -0.595855      0.503905
  O       0.512070     -0.369452      1.965311
  C       0.713161     -2.336588      0.093097
  N       0.931973     -3.441111     -0.171413
  N      -1.036842     -0.278303     -0.277547
  C      -1.680433      1.015702      0.047869
  C      -0.803194      2.233958     -0.189500
  C      -1.980700     -1.350964     -0.632990
  C      -2.799629     -1.884439      0.534061
  H       4.591491      1.419488     -0.479206
  H       3.076913      2.196268     -1.009294
  H       3.652585      0.706384     -1.816758
  H       3.312325     -0.576030      0.320805
  H       2.723593      0.904528      1.120233
  H      -2.050897      1.013658      1.087756
  H      -2.566709      1.071880     -0.601296
  H      -0.403462      2.242661     -1.213304
  H       0.043280      2.281671      0.510676
  H      -1.406883      3.140342     -0.039637
  H      -2.640945     -0.929936     -1.406559
  H      -1.427566     -2.163648     -1.124266
  H      -3.498294     -2.658239      0.184478
  H      -2.151750     -2.332826      1.303364
  H      -3.388372     -1.086208      1.009070
27
Coordinates from ORCA-job opt E -876.473931520809
  C       3.552458      1.226781     -0.922257
  C       2.853539      0.353389      0.089534
  O       1.523742      0.077789     -0.396644
  P       0.395976     -0.550683      0.548178
  O       0.542008     -0.175395      1.976427
  C       0.663289     -2.334461      0.300790
  N       0.864293     -3.463371      0.148770
  N      -1.031513     -0.268304     -0.235433
  C      -1.695360      1.015488      0.083160
  C      -0.810882      2.238024     -0.104267
  C      -1.940313     -1.337421     -0.672763
  C      -2.811416     -1.908993      0.437422
  H       4.576370      1.435631     -0.580842
  H       3.025999      2.184271     -1.041029
  H       3.609565      0.724841     -1.898142
  H       3.375466     -0.606851      0.226250
  H       2.771245      0.843011      1.070523
  H      -2.100221      0.996953      1.109721
  H      -2.558897      1.085366     -0.594352
  H      -0.392201      2.276370     -1.119836
  H       0.022479      2.262057      0.613534
  H      -1.412526      3.142675      0.062158
  H      -2.562697     -0.907587     -1.472070
  H      -1.350660     -2.132365     -1.150730
  H      -3.488237     -2.678265      0.038675
  H      -2.194508     -2.372447      1.222921
  H      -3.426996     -1.126503      0.904389
27
Coordinates from ORCA-job opt E -876.474349086910
  C       3.536387      1.224350     -0.958087
  C       2.875390      0.310988      0.044620
  O       1.534383      0.038801     -0.408645
  P       0.401651     -0.517434      0.576186
  O       0.561659     -0.057965      1.979414
  C       0.645308     -2.315727      0.432050
  N       0.844485     -3.452166      0.352855
  N      -1.030561     -0.259898     -0.198935
  C      -1.707152      1.016935      0.112699
  C      -0.823355      2.243473     -0.059800
  C      -1.906725     -1.330851     -0.689394
  C      -2.823993     -1.921879      0.373372
  H       4.570179      1.429229     -0.644877
  H       3.000046      2.181535     -1.027016
  H       3.563561      0.757430     -1.952788
  H       3.408651     -0.649072      0.131486
  H       2.821957      0.767741      1.043410
  H      -2.124739      0.994007      1.134238
  H      -2.561309      1.088916     -0.576372
  H      -0.400117      2.292411     -1.073402
  H       0.005651      2.260272      0.663586
  H      -1.424265      3.147652      0.112414
  H      -2.495579     -0.901458     -1.514009
  H      -1.287550     -2.116630     -1.145831
  H      -3.474474     -2.693630     -0.063012
  H      -2.240226     -2.387442      1.182570
  H      -3.469262     -1.149587      0.817353
27
Coordinates from ORCA-job opt E -876.474925807943
  C       3.529659      1.220618     -0.963957
  C       2.888997      0.246389     -0.003934
  O       1.526923      0.030105     -0.419439
  P       0.401167     -0.482245      0.599727
  O       0.573338      0.015594      1.993080
  C       0.645857     -2.279986      0.524657
  N       0.858612     -3.415426      0.500201
  N      -1.038578     -0.240477     -0.144919
  C      -1.722378      1.031231      0.154649
  C      -0.850081      2.262984     -0.056656
  C      -1.866455     -1.324697     -0.682757
  C      -2.834763     -1.938681      0.322173
  H       4.579413      1.388988     -0.682659
  H       3.004686      2.187615     -0.945325
  H       3.505150      0.829076     -1.991952
  H       3.412360     -0.724491     -0.009932
  H       2.891177      0.635044      1.025426
  H      -2.123993      1.023497      1.183791
  H      -2.585725      1.086195     -0.524982
  H      -0.447447      2.295456     -1.080446
  H      -0.009751      2.294454      0.653155
  H      -1.448802      3.170702      0.108324
  H      -2.418104     -0.908197     -1.540019
  H      -1.208527     -2.099760     -1.105272
  H      -3.434463     -2.725840     -0.158772
  H      -2.296627     -2.392984      1.169065
  H      -3.531648     -1.185165      0.720858
27
Coordinates from ORCA-job opt E -876.475349530347
  C       3.512012      1.203530     -0.994663
  C       2.902286      0.201411     -0.043271
  O       1.528598     -0.007626     -0.422700
  P       0.410110     -0.452422      0.635159
  O       0.603447      0.117541      1.997726
  C       0.636419     -2.252938      0.650029
  N       0.849701     -3.387919      0.691803
  N      -1.036553     -0.230496     -0.097083
  C      -1.734317      1.033071      0.198862
  C      -0.876421      2.271802     -0.027735
  C      -1.828017     -1.307697     -0.697260
  C      -2.834203     -1.947921      0.250890
  H       4.570446      1.364097     -0.743188
  H       2.988091      2.169056     -0.930852
  H       3.453802      0.842433     -2.032329
  H       3.424996     -0.768285     -0.092722
  H       2.935557      0.561135      0.996114
  H      -2.130243      1.026625      1.229848
  H      -2.601894      1.071737     -0.476642
  H      -0.488533      2.303838     -1.057122
  H      -0.026855      2.311300      0.671076
  H      -1.479636      3.175466      0.142502
  H      -2.344287     -0.877657     -1.570176
  H      -1.144844     -2.067943     -1.105090
  H      -3.403448     -2.730535     -0.272714
  H      -2.330808     -2.413765      1.112805
  H      -3.555407     -1.207837      0.630818
27
Coordinates from ORCA-job opt E -876.476246530591
  C       3.490363      1.154587     -1.034816
  C       2.907357      0.136295     -0.085690
  O       1.511455     -0.040378     -0.406090
  P       0.428197     -0.417566      0.709211
  O       0.661979      0.213430      2.035532
  C       0.645595     -2.211311      0.804331
  N       0.868646     -3.340518      0.916687
  N      -1.032103     -0.209640      0.001497
  C      -1.753385      1.040342      0.293298
  C      -0.947207      2.291038     -0.018264
  C      -1.759715     -1.263525     -0.711819
  C      -2.814986     -1.949958      0.136953
  H       4.561999      1.284940     -0.827720
  H       2.989858      2.126352     -0.915709
  H       3.376013      0.827640     -2.078353
  H       3.405771     -0.840857     -0.185941
  H       2.992867      0.462609      0.962075
  H      -2.106963      1.052427      1.337883
  H      -2.649620      1.012177     -0.344878
  H      -0.611513      2.288862     -1.065238
  H      -0.064765      2.380330      0.635423
  H      -1.570204      3.181820      0.145526
  H      -2.222492     -0.792455     -1.595113
  H      -1.040164     -1.991327     -1.107989
  H      -3.328992     -2.714395     -0.464994
  H      -2.367521     -2.446052      1.013107
  H      -3.570472     -1.234867      0.495178
27
Coordinates from ORCA-job opt E -876.477382262444
  C       3.467877      1.066741     -1.098454
  C       2.912061      0.026105     -0.157299
  O       1.495788     -0.108829     -0.403219
  P       0.446463     -0.345454      0.781287
  O       0.724692      0.416859      2.026533
  C       0.650138     -2.120032      1.063981
  N       0.887947     -3.223522      1.317980
  N      -1.033903     -0.181612      0.114022
  C      -1.794210      1.041591      0.418113
  C      -1.058768      2.313472      0.030480
  C      -1.663215     -1.190972     -0.741899
  C      -2.766384     -1.958601     -0.038526
  H       4.552652      1.160693     -0.949136
  H       3.001502      2.044710     -0.912909
  H       3.284626      0.785672     -2.145188
  H       3.376217     -0.958340     -0.321748
  H       3.064164      0.309731      0.895093
  H      -2.091733      1.061128      1.478854
  H      -2.721983      0.954743     -0.167230
  H      -0.794632      2.297584     -1.036590
  H      -0.137974      2.441556      0.620857
  H      -1.698793      3.187357      0.218587
  H      -2.060083     -0.668946     -1.629044
  H      -0.889691     -1.871578     -1.120797
  H      -3.201156     -2.689674     -0.736698
  H      -2.382143     -2.502997      0.838072
  H      -3.569458     -1.287385      0.298960
27
Coordinates from ORCA-job opt E -876.479073635174
  C       3.474746      0.887280     -1.201794
  C       2.898816     -0.076948     -0.193590
  O       1.467117     -0.145224     -0.379244
  P       0.460019     -0.261493      0.861047
  O       0.774663      0.587323      2.035208
  C       0.656804     -2.010876      1.307397
  N       0.899276     -3.076038      1.691636
  N      -1.043156     -0.127339      0.237681
  C      -1.862817      1.054083      0.578956
  C      -1.250697      2.356957      0.093687
  C      -1.549809     -1.056680     -0.781045
  C      -2.642030     -1.972254     -0.253010
  H       4.567368      0.925987     -1.091031
  H       3.068915      1.896799     -1.047776
  H       3.239498      0.567471     -2.226081
  H       3.299199     -1.092777     -0.324792
  H       3.104785      0.246393      0.836376
  H      -2.055970      1.080045      1.661925
  H      -2.837717      0.886573      0.100061
  H      -1.093212      2.324447     -0.994329
  H      -0.283460      2.537458      0.580073
  H      -1.914599      3.201886      0.330258
  H      -1.914177     -0.465162     -1.636448
  H      -0.703034     -1.646097     -1.168835
  H      -2.978052     -2.643491     -1.056908
  H      -2.275537     -2.583002      0.583048
  H      -3.506939     -1.395320      0.101617
27
Coordinates from ORCA-job opt E -876.479964799105
  C       3.485357      0.691229     -1.281449
  C       2.877449     -0.185811     -0.214242
  O       1.437637     -0.156604     -0.351767
  P       0.477168     -0.175680      0.929701
  O       0.815711      0.735086      2.046825
  C       0.687457     -1.893999      1.502151
  N       0.940436     -2.912965      1.989292
  N      -1.045617     -0.079809      0.351389
  C      -1.916572      1.047797      0.741073
  C      -1.482826      2.368967      0.125981
  C      -1.438826     -0.901238     -0.803071
  C      -2.496919     -1.942207     -0.460921
  H       4.581253      0.656589     -1.201981
  H       3.155826      1.733073     -1.161280
  H       3.196394      0.343155     -2.283171
  H       3.199849     -1.233546     -0.311362
  H       3.142286      0.167444      0.793018
  H      -1.960407      1.109218      1.838575
  H      -2.931381      0.777010      0.418425
  H      -1.464787      2.292647     -0.972121
  H      -0.473901      2.632960      0.469371
  H      -2.171672      3.177602      0.413960
  H      -1.785176     -0.235899     -1.610152
  H      -0.532808     -1.394400     -1.196327
  H      -2.746411     -2.530242     -1.355825
  H      -2.133522     -2.625162      0.319063
  H      -3.416000     -1.465216     -0.091069
27
Coordinates from ORCA-job opt E -876.480499376468
  C       3.548685      0.645548     -1.276441
  C       2.895486     -0.156500     -0.177383
  O       1.460283     -0.067765     -0.334047
  P       0.482382     -0.167602      0.928530
  O       0.808729      0.653071      2.117265
  C       0.665329     -1.930356      1.388839
  N       0.873971     -2.987121      1.808682
  N      -1.036356     -0.037347      0.332842
  C      -1.917763      1.068526      0.748816
  C      -1.565947      2.399240      0.095343
  C      -1.449083     -0.877042     -0.803433
  C      -2.464802     -1.955349     -0.431249
  H       4.642047      0.569817     -1.182438
  H       3.263980      1.705796     -1.206798
  H       3.256094      0.261620     -2.264994
  H       3.175274     -1.221372     -0.226297
  H       3.169011      0.230501      0.816300
  H      -1.884340      1.148509      1.846628
  H      -2.946930      0.770515      0.501755
  H      -1.596132      2.316569     -1.002956
  H      -0.551748      2.707799      0.387167
  H      -2.271762      3.184024      0.406351
  H      -1.841166     -0.222684     -1.598065
  H      -0.545066     -1.345838     -1.228166
  H      -2.746198     -2.546759     -1.314153
  H      -2.043304     -2.635627      0.323715
  H      -3.380675     -1.510172     -0.011728
27
Coordinates from ORCA-job opt E -876.481153339039
  C       3.579134      0.599770     -1.272460
  C       2.912481     -0.185987     -0.169931
  O       1.479476     -0.056061     -0.316889
  P       0.502039     -0.143434      0.941931
  O       0.825494      0.697622      2.119842
  C       0.690951     -1.899375      1.416030
  N       0.898282     -2.950866      1.849267
  N      -1.015713     -0.032078      0.344991
  C      -1.905291      1.043207      0.792582
  C      -1.670747      2.366916      0.074845
  C      -1.423859     -0.835860     -0.815337
  C      -2.455024     -1.903810     -0.470802
  H       4.670585      0.487368     -1.194602
  H       3.332228      1.668618     -1.193330
  H       3.261298      0.232320     -2.259605
  H       3.161651     -1.257919     -0.228645
  H       3.209215      0.187589      0.823453
  H      -1.784424      1.164573      1.880033
  H      -2.937176      0.693774      0.634655
  H      -1.771146      2.251130     -1.015696
  H      -0.659175      2.748111      0.289489
  H      -2.400507      3.119814      0.406313
  H      -1.811239     -0.152165     -1.589338
  H      -0.530166     -1.302813     -1.253587
  H      -2.750368     -2.462053     -1.371088
  H      -2.043167     -2.619312      0.258923
  H      -3.364833     -1.459080     -0.036960
27
Coordinates from ORCA-job opt E -876.481437117236
  C       3.606850      0.530098     -1.285205
  C       2.924756     -0.189552     -0.147663
  O       1.495807     -0.025429     -0.293470
  P       0.513181     -0.126744      0.957285
  O       0.826913      0.708759      2.142353
  C       0.703925     -1.884767      1.416492
  N       0.899540     -2.941970      1.843662
  N      -0.998524     -0.011178      0.348181
  C      -1.901023      1.036164      0.830517
  C      -1.771037      2.350770      0.072911
  C      -1.402928     -0.786856     -0.830915
  C      -2.422014     -1.869704     -0.507081
  H       4.694689      0.389055     -1.209625
  H       3.392342      1.607784     -1.249216
  H       3.271616      0.132377     -2.253990
  H       3.145368     -1.268695     -0.164240
  H       3.236784      0.215654      0.827645
  H      -1.706677      1.192598      1.901522
  H      -2.926740      0.643729      0.753350
  H      -1.931206      2.210059     -1.006970
  H      -0.770079      2.786883      0.219124
  H      -2.516979      3.074794      0.432541
  H      -1.802714     -0.085677     -1.582574
  H      -0.507743     -1.233474     -1.286813
  H      -2.717015     -2.404229     -1.421934
  H      -2.002871     -2.604028      0.198262
  H      -3.334222     -1.446418     -0.060062
27
Coordinates from ORCA-job opt E -876.481599160743
  C       3.624866      0.486069     -1.295575
  C       2.936747     -0.177915     -0.128185
  O       1.510761     -0.003661     -0.279114
  P       0.516949     -0.122054      0.961144
  O       0.818987      0.706234      2.154728
  C       0.710606     -1.881221      1.403623
  N       0.897078     -2.945700      1.817384
  N      -0.985746      0.004843      0.336391
  C      -1.899303      1.032344      0.845663
  C      -1.822375      2.346864      0.082332
  C      -1.395111     -0.764925     -0.843838
  C      -2.408297     -1.852605     -0.521095
  H       4.711174      0.338176     -1.215614
  H       3.419953      1.566055     -1.306062
  H       3.283965      0.051719     -2.246232
  H       3.148950     -1.258518     -0.099831
  H       3.252254      0.265139      0.828817
  H      -1.672372      1.199691      1.907839
  H      -2.918516      0.618044      0.803336
  H      -2.015819      2.203855     -0.991474
  H      -0.829077      2.808012      0.195276
  H      -2.572795      3.053648      0.466829
  H      -1.802183     -0.061785     -1.589005
  H      -0.499247     -1.204417     -1.306492
  H      -2.696118     -2.384459     -1.440055
  H      -1.990441     -2.588362      0.182372
  H      -3.324888     -1.435069     -0.079078
27
Coordinates from ORCA-job opt E -876.481687352632
  C       3.631356      0.434215     -1.313377
  C       2.941394     -0.174975     -0.117570
  O       1.517948      0.012516     -0.268853
  P       0.518584     -0.107796      0.968277
  O       0.813891      0.720380      2.163216
  C       0.715793     -1.865111      1.411879
  N       0.897038     -2.931405      1.822738
  N      -0.978474      0.024992      0.333827
  C      -1.908465      1.030204      0.863539
  C      -1.869204      2.347587      0.102745
  C      -1.380242     -0.737239     -0.854116
  C      -2.381047     -1.842400     -0.548122
  H       4.716472      0.278896     -1.231288
  H       3.436118      1.514813     -1.367539
  H       3.281794     -0.034538     -2.244514
  H       3.142881     -1.256025     -0.046251
  H       3.264984      0.302908      0.819772
  H      -1.666163      1.199263      1.921847
  H      -2.919321      0.594868      0.838623
  H      -2.082654      2.205219     -0.967527
  H      -0.881325      2.823596      0.196355
  H      -2.622404      3.041131      0.505947
  H      -1.793197     -0.032392     -1.593963
  H      -0.476036     -1.160127     -1.317587
  H      -2.650403     -2.370188     -1.475048
  H      -1.961132     -2.577652      0.154256
  H      -3.308186     -1.440742     -0.113181
27
Coordinates from ORCA-job opt E -876.481783167961
  C       3.636675      0.385125     -1.332916
  C       2.949085     -0.159886     -0.105230
  O       1.526897      0.026190     -0.262099
  P       0.517852     -0.094208      0.969316
  O       0.804506      0.734431      2.165664
  C       0.717110     -1.849774      1.412901
  N       0.892204     -2.920620      1.813841
  N      -0.970874      0.045303      0.319589
  C      -1.920595      1.022689      0.870382
  C      -1.899115      2.354219      0.134244
  C      -1.368748     -0.720602     -0.867138
  C      -2.361977     -1.834754     -0.565532
  H       4.722102      0.235357     -1.244264
  H       3.439533      1.461040     -1.444869
  H       3.285683     -0.132550     -2.237412
  H       3.149616     -1.236290      0.022481
  H       3.275100      0.365332      0.805766
  H      -1.683081      1.173787      1.932596
  H      -2.923705      0.570658      0.834583
  H      -2.116632      2.229431     -0.937493
  H      -0.914887      2.836629      0.231886
  H      -2.656302      3.032867      0.555107
  H      -1.786186     -0.019509     -1.607822
  H      -0.459202     -1.135024     -1.328259
  H      -2.613908     -2.368265     -1.494010
  H      -1.943503     -2.562392      0.145663
  H      -3.297650     -1.439185     -0.142886
27
Coordinates from ORCA-job opt E -876.481864706232
  C       3.640156      0.270444     -1.370582
  C       2.960062     -0.136867     -0.086759
  O       1.539149      0.047997     -0.251072
  P       0.521578     -0.058679      0.976498
  O       0.799656      0.775217      2.170285
  C       0.719071     -1.811479      1.433137
  N       0.880966     -2.886316      1.828242
  N      -0.958149      0.085902      0.308269
  C      -1.943022      1.006948      0.895158
  C      -1.976507      2.357696      0.195098
  C      -1.337781     -0.668847     -0.892082
  C      -2.307633     -1.812167     -0.619441
  H       4.726054      0.129936     -1.271830
  H       3.442791      1.328022     -1.598068
  H       3.283787     -0.342660     -2.211259
  H       3.154791     -1.195679      0.152473
  H       3.297067      0.477784      0.762499
  H      -1.701860      1.135690      1.959608
  H      -2.927305      0.515778      0.855092
  H      -2.205700      2.253361     -0.876489
  H      -1.004642      2.865150      0.291074
  H      -2.747288      3.001359      0.645105
  H      -1.767897      0.035994     -1.621964
  H      -0.416417     -1.053011     -1.355401
  H      -2.532528     -2.337954     -1.558921
  H      -1.880484     -2.538441      0.088380
  H      -3.257916     -1.445176     -0.202963
27
Coordinates from ORCA-job opt E -876.481902291176
  C       3.641335      0.280208     -1.368675
  C       2.959079     -0.138910     -0.089794
  O       1.537096      0.037484     -0.256942
  P       0.521675     -0.059300      0.972075
  O       0.801804      0.782045      2.160504
  C       0.717792     -1.810301      1.439969
  N       0.881684     -2.882994      1.840413
  N      -0.960519      0.079188      0.307185
  C      -1.941247      1.004399      0.891452
  C      -1.966305      2.358037      0.196186
  C      -1.341407     -0.675300     -0.892891
  C      -2.315308     -1.813861     -0.617098
  H       4.727935      0.148276     -1.266059
  H       3.436548      1.337409     -1.591141
  H       3.294279     -0.331857     -2.213896
  H       3.159063     -1.198136      0.142666
  H       3.290410      0.471613      0.764483
  H      -1.705040      1.128506      1.957638
  H      -2.928185      0.519211      0.844733
  H      -2.190179      2.257561     -0.876835
  H      -0.993167      2.861914      0.299382
  H      -2.737559      3.002768      0.643557
  H      -1.769658      0.031039     -1.622735
  H      -0.423015     -1.064122     -1.357069
  H      -2.546363     -2.339826     -1.554966
  H      -1.888034     -2.541582      0.089349
  H      -3.262711     -1.443468     -0.197407
27
Coordinates from ORCA-job opt E -876.481940277633
  C       3.642337      0.267303     -1.373297
  C       2.957963     -0.133796     -0.089889
  O       1.534636      0.027838     -0.264657
  P       0.522021     -0.052402      0.965685
  O       0.803153      0.799822      2.146469
  C       0.716377     -1.800525      1.451854
  N       0.880063     -2.872267      1.855501
  N      -0.962332      0.077737      0.302429
  C      -1.943180      0.997770      0.890797
  C      -1.964655      2.360398      0.212926
  C      -1.341447     -0.673317     -0.900208
  C      -2.312893     -1.813212     -0.624526
  H       4.729958      0.153774     -1.260688
  H       3.424382      1.316670     -1.618810
  H       3.311456     -0.368295     -2.207357
  H       3.165096     -1.187327      0.161104
  H       3.281480      0.493450      0.754894
  H      -1.715169      1.108969      1.960178
  H      -2.930882      0.515530      0.831249
  H      -2.179626      2.271680     -0.862857
  H      -0.992994      2.864151      0.330583
  H      -2.741064      2.998201      0.660981
  H      -1.772079      0.035823     -1.626261
  H      -0.424722     -1.060771     -1.367557
  H      -2.547840     -2.337987     -1.562117
  H      -1.880540     -2.542183      0.077641
  H      -3.259498     -1.447036     -0.199979
27
Coordinates from ORCA-job opt E -876.481949903669
  C       3.642490      0.260081     -1.374695
  C       2.956988     -0.134919     -0.090053
  O       1.533828      0.029402     -0.265881
  P       0.522568     -0.047792      0.965043
  O       0.802954      0.807713      2.143697
  C       0.718895     -1.794612      1.456406
  N       0.882964     -2.866556      1.859398
  N      -0.962493      0.078718      0.302343
  C      -1.944555      0.996166      0.892397
  C      -1.968553      2.360121      0.217248
  C      -1.340221     -0.669800     -0.902176
  C      -2.308866     -1.812357     -0.628245
  H       4.729887      0.145609     -1.260869
  H       3.426247      1.308852     -1.624175
  H       3.311625     -0.378385     -2.206507
  H       3.161413     -1.188174      0.164243
  H       3.281425      0.494600      0.752584
  H      -1.717218      1.106294      1.961982
  H      -2.931736      0.512829      0.831840
  H      -2.181610      2.272814     -0.859055
  H      -0.998748      2.866768      0.337474
  H      -2.747752      2.994571      0.665268
  H      -1.772541      0.040372     -1.626158
  H      -0.422914     -1.054673     -1.370530
  H      -2.543893     -2.335564     -1.566771
  H      -1.874066     -2.542287      0.071318
  H      -3.256118     -1.449795     -0.202040
27
Coordinates from ORCA-job opt E -876.481986392181
  C       3.642670      0.241210     -1.378863
  C       2.956068     -0.133251     -0.088739
  O       1.533086      0.035834     -0.266816
  P       0.522988     -0.037902      0.964417
  O       0.800051      0.823264      2.139730
  C       0.723905     -1.782129      1.463838
  N       0.886547     -2.856687      1.860345
  N      -0.962154      0.082470      0.300585
  C      -1.948498      0.992618      0.895271
  C      -1.976785      2.360671      0.228593
  C      -1.337483     -0.662319     -0.906774
  C      -2.299311     -1.811357     -0.636105
  H       4.729698      0.124852     -1.263123
  H       3.430074      1.287214     -1.642647
  H       3.310145     -0.407744     -2.201782
  H       3.155263     -1.184132      0.179068
  H       3.282705      0.506561      0.745121
  H      -1.723941      1.098079      1.965861
  H      -2.934094      0.506566      0.830172
  H      -2.185373      2.279109     -0.849085
  H      -1.010763      2.872652      0.355769
  H      -2.761472      2.987440      0.678025
  H      -1.774044      0.048788     -1.627108
  H      -0.418289     -1.040982     -1.376679
  H      -2.533024     -2.331994     -1.576528
  H      -1.859504     -2.542319      0.059076
  H      -3.248464     -1.456513     -0.207538
27
Coordinates from ORCA-job opt E -876.482011873579
  C       3.641857      0.223780     -1.383212
  C       2.955942     -0.131280     -0.087301
  O       1.533064      0.042698     -0.265748
  P       0.523229     -0.029072      0.965768
  O       0.796950      0.836592      2.138429
  C       0.727765     -1.771113      1.470784
  N       0.886785     -2.849155      1.859063
  N      -0.961538      0.086464      0.300191
  C      -1.952647      0.989901      0.898037
  C      -1.984962      2.361080      0.237954
  C      -1.333931     -0.655273     -0.909935
  C      -2.289490     -1.810678     -0.643656
  H       4.728550      0.103804     -1.267799
  H       3.433648      1.267446     -1.659495
  H       3.304732     -0.433825     -2.197348
  H       3.150366     -1.179738      0.193172
  H       3.286133      0.518002      0.737758
  H      -1.730484      1.091449      1.969496
  H      -2.936263      0.500417      0.829050
  H      -2.190362      2.284299     -0.840723
  H      -1.021851      2.877179      0.370261
  H      -2.773629      2.981752      0.689029
  H      -1.774285      0.056424     -1.627246
  H      -0.412493     -1.027456     -1.380796
  H      -2.521496     -2.328089     -1.586327
  H      -1.845341     -2.542819      0.047455
  H      -3.240248     -1.462789     -0.212774
27
Coordinates from ORCA-job opt E -876.482041651053
  C       3.639908      0.203071     -1.388935
  C       2.956935     -0.126571     -0.084804
  O       1.534017      0.050255     -0.262631
  P       0.523443     -0.019671      0.968866
  O       0.793280      0.850375      2.138998
  C       0.730296     -1.759797      1.478048
  N       0.880906     -2.843562      1.853375
  N      -0.960311      0.091434      0.300287
  C      -1.957491      0.986843      0.900958
  C      -1.994402      2.361529      0.248540
  C      -1.328683     -0.647293     -0.912975
  C      -2.277468     -1.809715     -0.652342
  H       4.726457      0.080132     -1.275216
  H       3.435227      1.242734     -1.682438
  H       3.296457     -0.466984     -2.190211
  H       3.148084     -1.170716      0.213495
  H       3.291543      0.536303      0.727585
  H      -1.738368      1.083335      1.973542
  H      -2.938365      0.492717      0.826868
  H      -2.196986      2.290550     -0.831073
  H      -1.033969      2.881246      0.386092
  H      -2.786631      2.975877      0.702104
  H      -1.773361      0.064949     -1.627019
  H      -0.404687     -1.011719     -1.384911
  H      -2.507788     -2.322682     -1.597836
  H      -1.828529     -2.543450      0.033974
  H      -3.229515     -1.469192     -0.218255
27
Coordinates from ORCA-job opt E -876.482065542225
  C       3.637515      0.179154     -1.395458
  C       2.959258     -0.119598     -0.081417
  O       1.536423      0.057606     -0.257754
  P       0.524338     -0.010393      0.973291
  O       0.790938      0.862683      2.141751
  C       0.731075     -1.749709      1.484008
  N       0.868302     -2.840309      1.844307
  N      -0.958065      0.097842      0.301162
  C      -1.962148      0.983622      0.904918
  C      -2.007437      2.361192      0.259330
  C      -1.321297     -0.637427     -0.915889
  C      -2.263496     -1.806856     -0.662172
  H       4.724128      0.054685     -1.284231
  H       3.434896      1.212802     -1.710817
  H       3.287206     -0.507115     -2.179913
  H       3.149111     -1.157369      0.239313
  H       3.299005      0.560139      0.714780
  H      -1.744464      1.075834      1.978215
  H      -2.939233      0.482597      0.827392
  H      -2.209914      2.294934     -0.820574
  H      -1.049690      2.885253      0.399354
  H      -2.802726      2.968760      0.716618
  H      -1.770366      0.075694     -1.626341
  H      -0.394877     -0.993357     -1.389306
  H      -2.492101     -2.314339     -1.610961
  H      -1.809855     -2.542601      0.018919
  H      -3.216524     -1.473725     -0.224440
27
Coordinates from ORCA-job opt E -876.482072985624
  C       3.636037      0.159780     -1.400115
  C       2.961571     -0.113255     -0.078466
  O       1.539093      0.063018     -0.253493
  P       0.525683     -0.004181      0.976758
  O       0.791024      0.868931      2.145431
  C       0.730311     -1.744345      1.485512
  N       0.854959     -2.839892      1.835340
  N      -0.955754      0.103808      0.302282
  C      -1.964757      0.981684      0.909047
  C      -2.020275      2.360282      0.266648
  C      -1.314783     -0.628550     -0.917927
  C      -2.252091     -1.803141     -0.669744
  H       4.722768      0.035166     -1.290564
  H       3.434191      1.187682     -1.734145
  H       3.281195     -0.540346     -2.170168
  H       3.151535     -1.145107      0.261009
  H       3.305427      0.580085      0.704134
  H      -1.745589      1.072695      1.982155
  H      -2.938481      0.474058      0.832128
  H      -2.225892      2.295400     -0.812701
  H      -1.064724      2.888806      0.404881
  H      -2.817433      2.962439      0.727698
  H      -1.767127      0.085439     -1.625494
  H      -0.386848     -0.977887     -1.392953
  H      -2.478974     -2.306476     -1.621087
  H      -1.795072     -2.540290      0.007567
  H      -3.205994     -1.475805     -0.229648
27
Coordinates from ORCA-job opt E -876.482077295142
  C       3.635948      0.156948     -1.400609
  C       2.962088     -0.111802     -0.077716
  O       1.539970      0.064076     -0.252040
  P       0.526333     -0.004026      0.977739
  O       0.792435      0.867249      2.147652
  C       0.729200     -1.745581      1.483299
  N       0.849022     -2.842228      1.831499
  N      -0.955206      0.105092      0.303533
  C      -1.964342      0.982261      0.910656
  C      -2.023870      2.359719      0.266213
  C      -1.313232     -0.626514     -0.917511
  C      -2.249677     -1.802021     -0.670586
  H       4.722659      0.031958     -1.291523
  H       3.434597      1.183937     -1.737696
  H       3.280147     -0.545179     -2.168379
  H       3.152484     -1.142602      0.264802
  H       3.307120      0.583293      0.702801
  H      -1.742955      1.075406      1.983105
  H      -2.937484      0.473049      0.836720
  H      -2.232559      2.292642     -0.812391
  H      -1.068645      2.889676      0.400919
  H      -2.820821      2.961382      0.728192
  H      -1.766068      0.087792     -1.624468
  H      -0.385207     -0.974507     -1.393236
  H      -2.475843     -2.304498     -1.622548
  H      -1.792172     -2.539472      0.006017
  H      -3.203920     -1.476051     -0.230358
27
Coordinates from ORCA-job opt E -876.482075817116
  C       3.636713      0.159261     -1.399981
  C       2.962346     -0.111107     -0.077683
  O       1.540374      0.063439     -0.252142
  P       0.526797     -0.005564      0.977265
  O       0.793763      0.864508      2.147931
  C       0.728970     -1.747974      1.480851
  N       0.846744     -2.844496      1.830206
  N      -0.955048      0.104339      0.303872
  C      -1.963157      0.982518      0.910900
  C      -2.023437      2.359138      0.264681
  C      -1.313517     -0.627501     -0.916894
  C      -2.251757     -1.801329     -0.669319
  H       4.723469      0.035192     -1.290396
  H       3.434719      1.186319     -1.736478
  H       3.282181     -0.542520     -2.168632
  H       3.153880     -1.141986      0.264048
  H       3.306664      0.583308      0.703734
  H      -1.740724      1.077153      1.982973
  H      -2.936656      0.473661      0.838606
  H      -2.233945      2.290331     -0.813461
  H      -1.068019      2.889232      0.397178
  H      -2.819888      2.961363      0.726781
  H      -1.764988      0.086992     -1.624536
  H      -0.385951     -0.977178     -1.392293
  H      -2.477527     -2.304514     -1.621032
  H      -1.795922     -2.538749      0.008380
  H      -3.206082     -1.473839     -0.230474
27
Coordinates from ORCA-job opt E -876.482072553278
  C       3.637119      0.163326     -1.399287
  C       2.962224     -0.111068     -0.078121
  O       1.540215      0.062812     -0.252682
  P       0.527009     -0.007143      0.976749
  O       0.794427      0.862340      2.147756
  C       0.729396     -1.749890      1.479440
  N       0.846259     -2.846021      1.830332
  N      -0.955258      0.102702      0.304307
  C      -1.962212      0.982692      0.910536
  C      -2.021006      2.358793      0.262982
  C      -1.314247     -0.629686     -0.915990
  C      -2.254870     -1.801401     -0.667731
  H       4.723900      0.039750     -1.289355
  H       3.434657      1.191161     -1.733139
  H       3.283701     -0.536586     -2.170140
  H       3.154455     -1.142722      0.260899
  H       3.305669      0.581424      0.705374
  H      -1.739842      1.078130      1.982539
  H      -2.936401      0.475097      0.838620
  H      -2.231781      2.288946     -0.815048
  H      -1.065126      2.888184      0.394816
  H      -2.816966      2.962128      0.724494
  H      -1.763637      0.084863     -1.624895
  H      -0.386966     -0.981780     -1.390223
  H      -2.480066     -2.305745     -1.618989
  H      -1.801314     -2.538600      0.011723
  H      -3.209339     -1.471707     -0.230882
