21
Coordinates from ORCA-job opt E -797.922676885099
  C           3.12142773442195      1.18565585682521     -0.06417347250510
  C           2.31416286023813     -0.08764855029270     -0.01006416200016
  O           0.92170947567160      0.25144305030191     -0.18930021412441
  P          -0.18850419503738     -0.86140979668207     -0.43850549435839
  O          -0.01534709129149     -1.79068873016108     -1.58002352460046
  C          -0.07527942259257     -1.82428102055414      1.10881916390989
  N          -0.04793849685080     -2.45088258026577      2.08084656117908
  N          -1.58980574007264     -0.02600246100597     -0.37049318939113
  C          -1.84406905693366      0.98391716599323      0.64857576681261
  C          -2.74843471038485     -0.48327236414964     -1.12721746225891
  H           3.00866200520690      1.67856303100919     -1.04046282641871
  H           4.18492068771149      0.95278998423283      0.08842001940318
  H           2.80209490348722      1.88297236063650      0.72378984418605
  H           2.42958641004299     -0.59227980536634      0.96315572038005
  H           2.61048588740801     -0.78961541086874     -0.80453659746814
  H          -2.26035941767364      1.88850638333621      0.17915867801794
  H          -0.91273240087602      1.25990142571367      1.15822185385854
  H          -2.56294329188723      0.61362111985281      1.39836756045744
  H          -2.43917209484552     -1.22968288372201     -1.86836755569205
  H          -3.20293511353100      0.36857253487778     -1.65624677722494
  H          -3.50552892221147     -0.93017930971088     -0.46168194216238
