21
Coordinates from ORCA-job opt E -797.912026217394
  C       3.270571      1.024554      0.182753
  C       2.339574     -0.091126     -0.244565
  O       1.003306      0.376814     -0.160564
  P      -0.178671     -0.701403     -0.398918
  O       0.176701     -1.751409     -1.411524
  C      -0.268633     -1.621690      1.194565
  N      -0.342493     -2.168671      2.220260
  N      -1.575582      0.145936     -0.627038
  C      -1.937868      1.134313      0.381584
  C      -2.747485     -0.636438     -1.004119
  H       3.136265      1.904703     -0.454746
  H       4.314777      0.704512      0.127412
  H       3.050756      1.338089      1.208668
  H       2.471692     -0.960440      0.407000
  H       2.553712     -0.384043     -1.277098
  H      -2.765291      1.765566      0.039391
  H      -1.096123      1.804746      0.582331
  H      -2.226642      0.660345      1.325478
  H      -2.515841     -1.281611     -1.857921
  H      -3.575725      0.009754     -1.314771
  H      -3.086999     -1.272503     -0.179896
21
Coordinates from ORCA-job opt E -797.918351263777
  C       3.205011      1.062238      0.197109
  C       2.332853     -0.095677     -0.233938
  O       0.963826      0.331318     -0.186807
  P      -0.187181     -0.761627     -0.435077
  O       0.119860     -1.793358     -1.469632
  C      -0.258897     -1.650286      1.165988
  N      -0.327528     -2.183521      2.190237
  N      -1.569905      0.111155     -0.602468
  C      -1.850993      1.148203      0.396353
  C      -2.758525     -0.649804     -0.999674
  H       3.055818      1.928246     -0.464964
  H       4.264294      0.773525      0.166592
  H       2.954184      1.377896      1.220904
  H       2.481168     -0.957276      0.437906
  H       2.577519     -0.405865     -1.260342
  H      -2.650095      1.807457      0.033461
  H      -0.963991      1.775055      0.564626
  H      -2.163750      0.716910      1.363927
  H      -2.527808     -1.306749     -1.849286
  H      -3.547067      0.041360     -1.323783
  H      -3.148792     -1.269200     -0.172850
21
Coordinates from ORCA-job opt E -797.920863705708
  C       3.136801      1.102831      0.202051
  C       2.326667     -0.101721     -0.210615
  O       0.931657      0.280640     -0.221232
  P      -0.191215     -0.821508     -0.476957
  O       0.051848     -1.832137     -1.534374
  C      -0.232360     -1.678347      1.132618
  N      -0.290562     -2.203817      2.160106
  N      -1.561054      0.076429     -0.569307
  C      -1.772182      1.142664      0.413831
  C      -2.766477     -0.642163     -0.992355
  H       2.983516      1.934862     -0.501953
  H       4.205641      0.844025      0.210779
  H       2.849470      1.439775      1.209598
  H       2.475503     -0.936539      0.496252
  H       2.602411     -0.449697     -1.217701
  H      -2.541699      1.825118      0.026359
  H      -0.848691      1.716308      0.558204
  H      -2.110341      0.749266      1.390705
  H      -2.531553     -1.310625     -1.830293
  H      -3.503264      0.097802     -1.335449
  H      -3.214116     -1.233165     -0.171985
21
Coordinates from ORCA-job opt E -797.921444295952
  C       3.125907      1.119616      0.183917
  C       2.329993     -0.107855     -0.183063
  O       0.932370      0.266140     -0.245313
  P      -0.190032     -0.833635     -0.493587
  O       0.017101     -1.832839     -1.565041
  C      -0.200482     -1.694866      1.114072
  N      -0.243629     -2.228848      2.138814
  N      -1.563397      0.065330     -0.544448
  C      -1.768411      1.129818      0.438471
  C      -2.772339     -0.624716     -0.999734
  H       2.988471      1.911449     -0.567110
  H       4.194362      0.863389      0.228973
  H       2.817487      1.504830      1.166866
  H       2.459177     -0.905026      0.568715
  H       2.624008     -0.509338     -1.164349
  H      -2.522767      1.823887      0.041240
  H      -0.835908      1.683400      0.595280
  H      -2.128082      0.738090      1.407525
  H      -2.524664     -1.302106     -1.826200
  H      -3.480563      0.132234     -1.366126
  H      -3.258601     -1.198955     -0.190621
21
Coordinates from ORCA-job opt E -797.921940537287
  C       3.120685      1.140479      0.147184
  C       2.334998     -0.113000     -0.142617
  O       0.939848      0.250039     -0.273407
  P      -0.187720     -0.844970     -0.505099
  O      -0.023851     -1.829709     -1.595223
  C      -0.153122     -1.724872      1.095366
  N      -0.174223     -2.277797      2.111698
  N      -1.567513      0.048651     -0.507677
  C      -1.777718      1.105178      0.477648
  C      -2.778968     -0.592481     -1.017082
  H       3.006427      1.868387     -0.668533
  H       4.186655      0.888770      0.241724
  H       2.786528      1.599802      1.088185
  H       2.435940     -0.847221      0.673623
  H       2.652424     -0.592877     -1.080027
  H      -2.501683      1.823240      0.066563
  H      -0.835747      1.629727      0.672530
  H      -2.180113      0.709408      1.426825
  H      -2.516112     -1.293302     -1.818259
  H      -3.439227      0.184327     -1.429524
  H      -3.327508     -1.131780     -0.225616
21
Coordinates from ORCA-job opt E -797.922125106882
  C       3.117626      1.150287      0.128370
  C       2.336639     -0.113114     -0.129600
  O       0.942741      0.241503     -0.279933
  P      -0.187735     -0.852216     -0.500954
  O      -0.038768     -1.832326     -1.598737
  C      -0.130278     -1.743601      1.094468
  N      -0.141124     -2.308001      2.104714
  N      -1.569689      0.035566     -0.486516
  C      -1.783616      1.091961      0.496421
  C      -2.781068     -0.574957     -1.028364
  H       3.005027      1.855380     -0.707232
  H       4.183799      0.905047      0.235346
  H       2.777158      1.634120      1.054683
  H       2.432926     -0.821665      0.709393
  H       2.662382     -0.619636     -1.050116
  H      -2.480617      1.829608      0.073367
  H      -0.836570      1.595869      0.721301
  H      -2.218865      0.698885      1.431785
  H      -2.513933     -1.301416     -1.804785
  H      -3.405329      0.209906     -1.480247
  H      -3.370705     -1.081201     -0.245084
21
Coordinates from ORCA-job opt E -797.922311782472
  C       3.109998      1.163802      0.099110
  C       2.333731     -0.111740     -0.111454
  O       0.941951      0.231958     -0.286319
  P      -0.189827     -0.862770     -0.493042
  O      -0.054050     -1.838370     -1.599172
  C      -0.099795     -1.767615      1.094038
  N      -0.096273     -2.347295      2.095408
  N      -1.572734      0.015445     -0.456940
  C      -1.788332      1.069807      0.526590
  C      -2.781210     -0.549831     -1.046929
  H       3.000683      1.834581     -0.764893
  H       4.176237      0.927541      0.224079
  H       2.760905      1.684906      1.001995
  H       2.426159     -0.782829      0.758405
  H       2.670196     -0.654787     -1.007267
  H      -2.440044      1.839807      0.088659
  H      -0.835342      1.538850      0.798960
  H      -2.273517      0.680827      1.438685
  H      -2.513229     -1.314581     -1.785450
  H      -3.344625      0.246002     -1.556731
  H      -3.430882     -1.003707     -0.279453
21
Coordinates from ORCA-job opt E -797.922440707142
  C       3.098929      1.182045      0.047633
  C       2.325987     -0.106795     -0.083216
  O       0.936458      0.221414     -0.288691
  P      -0.193436     -0.878496     -0.477434
  O      -0.068910     -1.850134     -1.590815
  C      -0.063401     -1.794500      1.099618
  N      -0.042361     -2.390668      2.090794
  N      -1.577016     -0.012911     -0.415689
  C      -1.797032      1.029435      0.578619
  C      -2.773991     -0.510981     -1.080531
  H       2.996270      1.793387     -0.860428
  H       4.164496      0.958116      0.198665
  H       2.740166      1.763717      0.909101
  H       2.415098     -0.718136      0.830154
  H       2.672182     -0.705491     -0.939372
  H      -2.372354      1.849663      0.124338
  H      -0.841236      1.437206      0.929696
  H      -2.361830      0.644375      1.445150
  H      -2.510040     -1.316523     -1.776034
  H      -3.244414      0.302385     -1.654126
  H      -3.503563     -0.897107     -0.349150
21
Coordinates from ORCA-job opt E -797.922503497704
  C       3.100603      1.183808      0.033796
  C       2.323769     -0.104499     -0.080168
  O       0.933412      0.224716     -0.279413
  P      -0.194367     -0.878542     -0.468991
  O      -0.063088     -1.850171     -1.581597
  C      -0.063357     -1.793887      1.107069
  N      -0.041823     -2.391073      2.097581
  N      -1.579548     -0.016670     -0.407246
  C      -1.803025      1.020647      0.592154
  C      -2.770111     -0.506223     -1.090810
  H       2.995893      1.785283     -0.880641
  H       4.166232      0.958806      0.183003
  H       2.747111      1.776660      0.889862
  H       2.418523     -0.708567      0.837456
  H       2.663785     -0.710789     -0.933498
  H      -2.350073      1.856908      0.131850
  H      -0.847932      1.405701      0.970027
  H      -2.395760      0.638375      1.440893
  H      -2.500344     -1.309467     -1.786833
  H      -3.230070      0.312236     -1.665744
  H      -3.509829     -0.893251     -0.370466
21
Coordinates from ORCA-job opt E -797.922604049799
  C       3.111877      1.181892      0.008854
  C       2.319446     -0.099080     -0.076972
  O       0.926698      0.241591     -0.245413
  P      -0.194248     -0.870054     -0.450121
  O      -0.036455     -1.837055     -1.562112
  C      -0.075249     -1.785474      1.123836
  N      -0.058197     -2.383539      2.113869
  N      -1.586365     -0.017890     -0.394735
  C      -1.820799      1.010394      0.612393
  C      -2.761611     -0.507407     -1.106776
  H       2.998023      1.772888     -0.911330
  H       4.177426      0.946292      0.141937
  H       2.781340      1.790320      0.863191
  H       2.431615     -0.700240      0.840604
  H       2.634184     -0.713245     -0.934425
  H      -2.308715      1.876115      0.139246
  H      -0.870471      1.348816      1.043275
  H      -2.469996      0.636560      1.422050
  H      -2.468113     -1.286663     -1.820118
  H      -3.227010      0.320774     -1.662915
  H      -3.503380     -0.924994     -0.406059
21
Coordinates from ORCA-job opt E -797.922623182526
  C       3.114964      1.182628     -0.006624
  C       2.317595     -0.096565     -0.067187
  O       0.925238      0.245869     -0.235818
  P      -0.193066     -0.868172     -0.445400
  O      -0.031046     -1.829333     -1.561649
  C      -0.071956     -1.788987      1.125505
  N      -0.053063     -2.391390      2.112892
  N      -1.588412     -0.021780     -0.386687
  C      -1.828845      1.002568      0.622354
  C      -2.758137     -0.502008     -1.112869
  H       3.000814      1.757441     -0.936938
  H       4.179943      0.945104      0.127581
  H       2.789691      1.807436      0.837830
  H       2.430549     -0.682361      0.860191
  H       2.626945     -0.726742     -0.914982
  H      -2.293794      1.879941      0.147324
  H      -0.883149      1.322578      1.076778
  H      -2.500778      0.630851      1.413988
  H      -2.459679     -1.276345     -1.829412
  H      -3.216343      0.331879     -1.666589
  H      -3.507472     -0.922612     -0.422007
21
Coordinates from ORCA-job opt E -797.922652339244
  C       3.122730      1.182905     -0.042188
  C       2.314649     -0.090692     -0.042141
  O       0.922682      0.255560     -0.210732
  P      -0.189382     -0.862634     -0.435626
  O      -0.018548     -1.808054     -1.563547
  C      -0.067383     -1.798418      1.127567
  N      -0.045220     -2.411235      2.108530
  N      -1.591996     -0.029099     -0.370748
  C      -1.846500      0.986715      0.642281
  C      -2.750185     -0.490792     -1.125342
  H       3.005992      1.718837     -0.994991
  H       4.186664      0.941655      0.093622
  H       2.810192      1.844791      0.778348
  H       2.429875     -0.637941      0.908062
  H       2.611117     -0.758637     -0.865335
  H      -2.265654      1.887103      0.167311
  H      -0.913980      1.268808      1.146414
  H      -2.563949      0.618805      1.394346
  H      -2.440528     -1.248454     -1.854802
  H      -3.199523      0.356049     -1.666760
  H      -3.511055     -0.925272     -0.455986
21
Coordinates from ORCA-job opt E -797.922659369077
  C       3.122570      1.183731     -0.047564
  C       2.314686     -0.089981     -0.035474
  O       0.922483      0.254928     -0.206511
  P      -0.188793     -0.862727     -0.435863
  O      -0.018502     -1.804225     -1.567259
  C      -0.067438     -1.803553      1.124749
  N      -0.044431     -2.419231      2.103886
  N      -1.591822     -0.030287     -0.369264
  C      -1.846536      0.985333      0.643817
  C      -2.749739     -0.488866     -1.126059
  H       3.005901      1.710657     -1.005393
  H       4.186529      0.944105      0.090872
  H       2.809314      1.852951      0.766706
  H       2.429581     -0.627394      0.920286
  H       2.611065     -0.765887     -0.852166
  H      -2.261735      1.887949      0.169604
  H      -0.915337      1.263489      1.152621
  H      -2.567437      0.618410      1.393156
  H      -2.440571     -1.244061     -1.858250
  H      -3.198507      0.359913     -1.664914
  H      -3.511280     -0.925256     -0.458700
21
Coordinates from ORCA-job opt E -797.922668276262
  C       3.121543      1.185207     -0.054219
  C       2.315082     -0.089299     -0.023716
  O       0.922343      0.252466     -0.198973
  P      -0.188221     -0.862901     -0.437852
  O      -0.018756     -1.797813     -1.575133
  C      -0.070374     -1.813963      1.117123
  N      -0.046191     -2.434768      2.092953
  N      -1.590904     -0.030216     -0.369331
  C      -1.843913      0.985564      0.644087
  C      -2.749919     -0.487106     -1.125534
  H       3.005662      1.697441     -1.020118
  H       4.185612      0.949525      0.089943
  H       2.804945      1.865936      0.749149
  H       2.429694     -0.610921      0.940655
  H       2.612215     -0.777104     -0.830095
  H      -2.258576      1.889123      0.171269
  H      -0.912844      1.261863      1.154173
  H      -2.564302      0.619624      1.394633
  H      -2.442314     -1.237382     -1.863429
  H      -3.201877      0.363656     -1.658509
  H      -3.508907     -0.928931     -0.458794
21
Coordinates from ORCA-job opt E -797.922668361221
  C       3.121319      1.185715     -0.059491
  C       2.314785     -0.088504     -0.017362
  O       0.921987      0.251889     -0.194434
  P      -0.188177     -0.862621     -0.437724
  O      -0.017734     -1.794720     -1.577312
  C      -0.071758     -1.818783      1.114051
  N      -0.046478     -2.442237      2.088148
  N      -1.590703     -0.029778     -0.368687
  C      -1.844055      0.984224      0.646434
  C      -2.749127     -0.485105     -1.126686
  H       3.006140      1.688792     -1.030290
  H       4.185289      0.951643      0.087941
  H       2.803649      1.874106      0.736918
  H       2.429849     -0.601382      0.951597
  H       2.611516     -0.783274     -0.817911
  H      -2.256010      1.889520      0.174547
  H      -0.913663      1.257749      1.159231
  H      -2.566454      0.618221      1.395034
  H      -2.441008     -1.233062     -1.866732
  H      -3.201231      0.366978     -1.657412
  H      -3.508135     -0.929370     -0.461577
21
Coordinates from ORCA-job opt E -797.922673621790
  C       3.121064      1.185906     -0.062778
  C       2.314487     -0.088012     -0.011837
  O       0.921804      0.251044     -0.190481
  P      -0.188452     -0.862025     -0.438379
  O      -0.016360     -1.792035     -1.579518
  C      -0.074649     -1.823378      1.109962
  N      -0.048118     -2.449161      2.082531
  N      -1.590025     -0.027237     -0.370012
  C      -1.843433      0.984306      0.647637
  C      -2.748738     -0.483918     -1.126900
  H       3.007432      1.681460     -1.037635
  H       4.184793      0.953250      0.088494
  H       2.801673      1.880719      0.727368
  H       2.429984     -0.594547      0.960377
  H       2.611133     -0.787958     -0.807938
  H      -2.258167      1.889114      0.177262
  H      -0.912238      1.259338      1.158104
  H      -2.563173      0.615983      1.397617
  H      -2.440018     -1.230159     -1.868447
  H      -3.203085      0.368162     -1.655681
  H      -3.505913     -0.930849     -0.461465
21
Coordinates from ORCA-job opt E -797.922676885099
  C       3.121428      1.185656     -0.064173
  C       2.314163     -0.087649     -0.010064
  O       0.921709      0.251443     -0.189300
  P      -0.188504     -0.861410     -0.438505
  O      -0.015347     -1.790689     -1.580024
  C      -0.075279     -1.824281      1.108819
  N      -0.047938     -2.450883      2.080847
  N      -1.589806     -0.026002     -0.370493
  C      -1.844069      0.983917      0.648576
  C      -2.748435     -0.483272     -1.127217
  H       3.008662      1.678563     -1.040463
  H       4.184921      0.952790      0.088420
  H       2.802095      1.882972      0.723790
  H       2.429586     -0.592280      0.963156
  H       2.610486     -0.789615     -0.804537
  H      -2.260359      1.888506      0.179159
  H      -0.912732      1.259901      1.158222
  H      -2.562943      0.613621      1.398368
  H      -2.439172     -1.229683     -1.868368
  H      -3.202935      0.368573     -1.656247
  H      -3.505529     -0.930179     -0.461682
