41
Fenamiphos P3S q=0
C     -1.57900201     3.95061715    -1.38919929
C     -1.87655652     3.23307844    -0.08911406
O     -1.98052100     1.84425089    -0.35354355
P     -1.99929263     0.85553704     0.92457614
O     -2.99610807     1.31461027     1.94724454
N     -2.28964262    -0.63302579     0.30408220
C     -2.11541642    -1.81337284     1.14298877
C     -1.99073688    -3.03329252     0.23131760
C     -3.28150768    -1.99285799     2.11230169
O     -0.48511188     0.91668101     1.47164635
C      0.66404773     0.65909911     0.78042739
C      1.84264154     0.77902320     1.51245942
C      3.07554472     0.53981691     0.90460501
C      3.14453071     0.17166724    -0.44493439
S      4.76116501    -0.11505756    -1.15712333
C      5.04042445    -1.79335586    -0.53583134
C      1.95889367     0.05784856    -1.19435618
C      1.96787021    -0.31701086    -2.65227867
C      0.72291852     0.30260813    -0.56466495
H     -2.36812427     3.76093784    -2.12428380
H     -1.49648129     5.02932955    -1.22994186
H     -0.64330140     3.58490558    -1.82511989
H     -1.07560157     3.42005243     0.63305788
H     -2.82233888     3.58881702     0.33102189
H     -3.20598697    -0.65684903    -0.12897263
H     -1.18544510    -1.72601026     1.71584686
H     -1.14384870    -2.92443576    -0.45575883
H     -2.89588825    -3.18496623    -0.36779306
H     -1.82282088    -3.94087769     0.82129324
H     -3.34017359    -1.16334429     2.82340169
H     -3.16010241    -2.91292938     2.69447456
H     -4.23924953    -2.05643838     1.58373200
H      1.80584318     1.06395398     2.56096842
H      3.98301074     0.64885128     1.49419850
H      5.06704562    -1.80144144     0.55720036
H      6.00083932    -2.15887193    -0.90884384
H      4.25272902    -2.46710018    -0.88429090
H      2.40986164    -1.30903512    -2.78967809
H      2.52811585     0.42186856    -3.23409574
H      0.95354020    -0.35353105    -3.06431356
H     -0.18576358     0.21024997    -1.15270653
