41
Fenamiphos P3R q=0
C     -2.31353321     3.93601410    -0.41310464
C     -2.46024327     2.62924956    -1.16439529
O     -2.37881437     1.56203258    -0.23474413
P     -2.22401091     0.07289381    -0.84322040
O     -3.24298474    -0.18083951    -1.91444447
N     -2.32662017    -0.92646196     0.45153951
C     -1.97225878    -2.33416842     0.30812786
C     -3.07684016    -3.12551852    -0.38853478
C     -1.70892170    -2.90494052     1.70089888
O     -0.71647104     0.05203446    -1.41140454
C      0.43479448     0.33061589    -0.73184246
C      0.49802671     0.71064138     0.60206724
C      1.73744617     0.97285116     1.19205133
C      2.92544425     0.85317945     0.45764114
S      4.46961654     1.21178077     1.28817725
C      4.66229156    -0.34455276     2.19460320
C      2.86798793     0.47865449    -0.89620563
C      4.10224977     0.34849931    -1.74624590
C      1.61297503     0.21802831    -1.47409077
H     -3.09481330     4.03369105     0.34788652
H     -1.35251612     3.97297153     0.11068121
H     -2.37668840     4.78810655    -1.09556623
H     -1.66729785     2.53720004    -1.91324654
H     -3.43041834     2.59074222    -1.66922802
H     -3.24305683    -0.84942542     0.87820224
H     -1.04744010    -2.42537523    -0.27244261
H     -3.22730902    -2.78058318    -1.41592312
H     -4.03129887    -3.03921779     0.14274257
H     -2.81694030    -4.18868914    -0.43681869
H     -0.90324904    -2.35747578     2.20315983
H     -1.40439426    -3.95524033     1.63671118
H     -2.60119164    -2.85223923     2.33518167
H     -0.39332050     0.81713691     1.21187278
H      1.76533095     1.27872881     2.23591160
H      5.60249272    -0.32105179     2.75192963
H      4.68952707    -1.19038587     1.50202733
H      3.84203311    -0.48316300     2.90412739
H      3.85427552     0.04856233    -2.77022979
H      4.77055813    -0.41574064    -1.33673850
H      4.62863474     1.30641652    -1.80667979
H      1.54694821    -0.07496212    -2.52043409
