42
VR P8R q=0
C     -5.09902623    -0.74099411     1.29782619
C     -4.67244739    -0.19544397    -0.06274163
N     -3.20914686    -0.04193426    -0.16612791
C     -2.72880637     1.09141412     0.64388929
C     -1.58937916     0.64664420     1.55165072
C     -2.81713581     0.07397216    -1.59170409
C     -1.32004055    -0.12803563    -1.88506713
S     -0.36409417     1.41849197    -1.95694809
P      1.59949579     0.72525595    -1.94312684
C      2.70598733     2.12764973    -2.03107514
O      1.83128961    -0.26099897    -3.05248827
O      1.92418686     0.10046238    -0.48656229
C      3.02736873    -0.78620874    -0.37842307
C      3.32947022    -1.04315876     1.10098759
C      4.42907118    -2.09249195     1.24675402
C      3.72694277     0.24886607     1.81830361
H     -4.59843859    -1.69123313     1.51271262
H     -4.87911692    -0.04636318     2.11352949
H     -6.17874452    -0.92378453     1.30297948
H     -5.18681080     0.75025204    -0.27484219
H     -5.02463012    -0.92113892    -0.80680323
H     -2.42067644     1.94292940     0.02832470
H     -3.51886270     1.49530632     1.28867831
H     -1.91852207    -0.14370771     2.23493504
H     -1.24398515     1.48986568     2.15872425
H     -0.73239685     0.27078562     0.98683266
H     -3.19810882     1.00288944    -2.03624449
H     -3.31769061    -0.74257706    -2.13029015
H     -1.21282286    -0.60248079    -2.86694803
H     -0.86766515    -0.80937696    -1.15699459
H      2.53580701     2.80694576    -1.19095874
H      3.74928330     1.80210729    -2.00340922
H      2.54625477     2.68108733    -2.96072388
H      2.76472861    -1.72409226    -0.87963722
H      3.89968803    -0.35688264    -0.88311347
H      2.41798411    -1.41891966     1.58329734
H      4.13452053    -3.03304977     0.76942816
H      5.36379790    -1.75616530     0.78526301
H      4.62907617    -2.30255394     2.30276612
H      2.92116396     0.98898841     1.77583894
H      3.94228456     0.05514925     2.87454078
H      4.62014671     0.69415610     1.36696736
