42
VR P8S q=0
C     -2.60313902    -1.71779894    -1.67040319
C     -3.14638891    -0.61088217    -0.77570836
N     -2.04205272     0.06030751    -0.06841489
C     -1.99654647    -0.29667259     1.36363336
C     -1.72925588    -1.77501162     1.62522627
C     -2.12457000     1.53319536    -0.19920068
C     -1.83189825     2.08585977    -1.60827569
S     -0.19888080     1.63426795    -2.27578239
P      1.13683166     2.32167521    -0.82888284
C      2.75049141     2.52731395    -1.58113635
O      0.64937763     3.62261511    -0.25145600
O      1.39264855     1.22211504     0.32898617
C      1.70281805    -0.11723138    -0.01917638
C      2.21051695    -0.86068443     1.22098791
C      2.45456692    -2.33318596     0.89769828
C      3.48690718    -0.21904365     1.76970900
H     -1.91434015    -1.31619915    -2.42091708
H     -2.07383063    -2.48553782    -1.09889536
H     -3.42646332    -2.20662124    -2.20151146
H     -3.89081877    -1.02018317    -0.08166118
H     -3.70678177     0.08239357    -1.41359783
H     -1.17899855     0.25710821     1.84258569
H     -2.92331340     0.00247479     1.86972832
H     -2.56892520    -2.40383167     1.31496551
H     -1.57433783    -1.94091537     2.69654986
H     -0.82954117    -2.11285580     1.10243597
H     -1.41427406     2.00255392     0.49218647
H     -3.11783942     1.88020297     0.11671707
H     -1.88876848     3.17929540    -1.57904143
H     -2.58727578     1.75182591    -2.32559156
H      2.71517243     3.32308998    -2.33088921
H      3.48848435     2.80349825    -0.82280618
H      3.08726307     1.61352172    -2.07673845
H      2.45933946    -0.13752464    -0.80923716
H      0.79859679    -0.60060528    -0.40044835
H      1.44626068    -0.79368239     2.00563545
H      3.22723242    -2.44888362     0.12994443
H      2.77967806    -2.87839422     1.79005038
H      1.53966569    -2.80940898     0.53052639
H      3.31125709     0.81966219     2.06796220
H      3.84398356    -0.76016519     2.65245099
H      4.28714864    -0.22603050     1.02179231
