29
A-232 P8R_C5N7Z q=0
C     -0.46726666    -0.30811860     2.97840092
C     -1.39838995    -0.27224150     1.77555588
N     -0.62494226    -0.13243885     0.53368007
C     -1.17376523     0.82795758    -0.43435219
C     -2.38408575     0.25679323    -1.15789782
C      0.18379099    -1.16188054     0.07733774
C     -0.33558347    -2.58525296     0.20057711
N      1.36223688    -1.05721673    -0.42756218
P      2.26708172     0.23663909    -0.61019173
O      3.74585563     0.09143916    -0.38856869
F      1.72333179     1.34277445     0.36742856
O      1.93339008     0.88682528    -2.05521868
C      2.68264712     2.03068791    -2.40740999
H     -1.04700017    -0.36813821     3.90473981
H      0.20415606    -1.17163834     2.94356834
H      0.15149824     0.59465711     3.01952523
H     -2.02526220    -1.16994304     1.74856207
H     -2.07872625     0.57854823     1.90268113
H     -0.41838310     1.10421228    -1.17376407
H     -1.45038261     1.75681777     0.07816830
H     -2.78043084     0.98967319    -1.86762806
H     -2.12049471    -0.64721728    -1.71638595
H     -3.18356898    -0.00270160    -0.45663353
H     -1.40105739    -2.62186550    -0.04194637
H     -0.18205493    -2.94251451     1.22230614
H      0.19935898    -3.24764916    -0.48674921
H      2.26943966     2.45088103    -3.32780289
H      3.72619706     1.75631448    -2.58281131
H      2.62241029     2.78459606    -1.61760864
