29
A-232 P8R_C5N7E q=0
C     -1.36366961     2.24379431    -1.13304140
C     -1.50907726     1.52447193     0.19949283
N     -1.35657606     0.07239070     0.02978805
C     -2.59646279    -0.66526334    -0.21528336
C     -3.20818089    -1.13424680     1.09596749
C     -0.08694564    -0.50341903     0.00845587
C      0.05290187    -2.00788589    -0.16825418
N      0.96702355     0.24653540     0.10414872
P      2.48285474    -0.24234724     0.04477439
O      2.91799275    -1.11285366    -1.09822174
F      2.71511536    -1.01163815     1.39814700
O      3.43359353     1.04957745     0.24239999
C      4.82322148     0.80301423     0.26557624
H     -2.11419762     1.89949937    -1.85201488
H     -0.37683477     2.07375418    -1.57496301
H     -1.49279053     3.32202238    -0.99680614
H     -0.77592303     1.90972036     0.91788623
H     -2.49265513     1.75459157     0.62672038
H     -2.42598944    -1.51662892    -0.88278966
H     -3.31989956    -0.02701568    -0.73746611
H     -3.45780781    -0.28495595     1.74048370
H     -4.12762254    -1.69638324     0.90527234
H     -2.52213336    -1.78035450     1.65216136
H     -0.79174115    -2.54442978     0.26669050
H      0.10946479    -2.23371779    -1.23676195
H      0.94999040    -2.38615163     0.32578040
H      5.34046770     1.73066491     0.52316002
H      5.16222152     0.47240390    -0.71978180
H      5.06365949     0.04485092     1.01597123
