18
Coordinates from ORCA-job opt E -1718.463500254766
  C          -1.56287798337570     -1.44900673685661      1.51531663142572
  O          -1.41895000919963     -0.78140198391597      0.25544610802006
  P          -0.33157959083833      0.35620751758578      0.04949832345654
  O          -0.18165677348025      1.34840679134991      1.13637682601893
  O          -0.65427502216463      0.88492582271766     -1.40910098426801
  C          -1.81701215372048      1.68764755951064     -1.65337424151454
  O           1.02412628453118     -0.49427145827620     -0.25176327773538
  C           2.24193516532260     -0.07436613138154      0.17806854095919
  C           3.35040424183564     -0.73637666297961     -0.16159324503069
  Cl          4.90063155999953     -0.21951659387547      0.39237696936461
  Cl          3.32023276704969     -2.14169817690832     -1.15845690173574
  H          -2.50741198532645     -2.00254745742128      1.47435526204507
  H          -0.72923513682256     -2.14930649748091      1.66822085467434
  H          -1.59403930811713     -0.71921561390975      2.33608002350957
  H          -1.89360858932305      2.49368715731242     -0.90983005027866
  H          -2.72065855118777      1.06266998654889     -1.62254900044189
  H          -1.69938531320928      2.11986541483742     -2.65311472272504
  H           2.27336039802664      0.81429707314294      0.81404289425592
