18
Coordinates from ORCA-job opt E -1718.456232789173
  C      -1.663283     -1.563508      1.390692
  O      -1.537704     -0.817935      0.197230
  P      -0.374544      0.296327      0.166035
  O      -0.408582      1.281775      1.292776
  O      -0.519333      0.943650     -1.302886
  C      -1.638339      1.779398     -1.514646
  O       0.983043     -0.573147      0.057880
  C       2.234565     -0.019080     -0.047203
  C       3.363617     -0.727365     -0.141921
  Cl      4.884454      0.078639     -0.269020
  Cl      3.360865     -2.452194     -0.139874
  H      -2.454712     -2.305608      1.259408
  H      -0.726999     -2.081317      1.615777
  H      -1.931922     -0.903221      2.219599
  H      -1.581054      2.656122     -0.864011
  H      -2.564628      1.231977     -1.320672
  H      -1.636116      2.111798     -2.555732
  H       2.210671      1.063688     -0.043434
18
Coordinates from ORCA-job opt E -1718.460491044826
  C      -1.644050     -1.587306      1.419891
  O      -1.497551     -0.837316      0.212592
  P      -0.374458      0.304568      0.169624
  O      -0.396638      1.281971      1.291373
  O      -0.531833      0.923136     -1.300739
  C      -1.640686      1.789839     -1.540578
  O       0.984966     -0.553961      0.038234
  C       2.224397      0.015155     -0.030392
  C       3.329537     -0.718679     -0.150801
  Cl      4.876458      0.035298     -0.233667
  Cl      3.279865     -2.438064     -0.228691
  H      -2.428750     -2.335144      1.256280
  H      -0.706757     -2.104932      1.672797
  H      -1.941894     -0.929279      2.249156
  H      -1.570884      2.689568     -0.912010
  H      -2.590221      1.270614     -1.343420
  H      -1.611040      2.087309     -2.595306
  H       2.239538      1.107222      0.025658
18
Coordinates from ORCA-job opt E -1718.462261105148
  C      -1.628637     -1.598244      1.454873
  O      -1.457659     -0.858277      0.235295
  P      -0.380249      0.310394      0.169623
  O      -0.379253      1.284741      1.280745
  O      -0.561016      0.889502     -1.301665
  C      -1.646948      1.789977     -1.571704
  O       0.984440     -0.537349      0.004574
  C       2.213533      0.044083      0.010121
  C       3.301856     -0.705478     -0.167920
  Cl      4.875199     -0.003723     -0.170774
  Cl      3.212716     -2.407019     -0.407749
  H      -2.406430     -2.346691      1.263344
  H      -0.694201     -2.109293      1.732749
  H      -1.947974     -0.933187      2.270592
  H      -1.551380      2.706191     -0.970522
  H      -2.613414      1.306190     -1.363811
  H      -1.590605      2.042306     -2.637036
  H       2.270023      1.125879      0.169267
18
Coordinates from ORCA-job opt E -1718.462665685940
  C      -1.629589     -1.589169      1.476510
  O      -1.447049     -0.871813      0.245694
  P      -0.382791      0.302611      0.154125
  O      -0.358732      1.282183      1.257829
  O      -0.589681      0.864430     -1.316645
  C      -1.658020      1.785720     -1.587739
  O       0.986179     -0.542170     -0.033837
  C       2.213638      0.037151      0.037330
  C       3.306570     -0.697991     -0.182255
  Cl      4.882936     -0.005554     -0.095694
  Cl      3.225179     -2.376791     -0.554668
  H      -2.413207     -2.332266      1.290668
  H      -0.699284     -2.101174      1.763800
  H      -1.944111     -0.905731      2.277831
  H      -1.537037      2.703168     -0.994382
  H      -2.630971      1.322549     -1.367056
  H      -1.600515      2.023700     -2.655801
  H       2.276483      1.101148      0.284291
18
Coordinates from ORCA-job opt E -1718.463086924160
  C      -1.629804     -1.547999      1.527047
  O      -1.429251     -0.891997      0.268103
  P      -0.381987      0.283971      0.107768
  O      -0.297760      1.281590      1.191110
  O      -0.654734      0.810121     -1.359951
  C      -1.690563      1.766617     -1.626803
  O       0.992651     -0.559530     -0.132441
  C       2.211898     -0.014994      0.112901
  C       3.326237     -0.680272     -0.210740
  Cl      4.890175     -0.026005      0.114208
  Cl      3.294487     -2.234597     -0.955319
  H      -2.436274     -2.272332      1.372578
  H      -0.711390     -2.070144      1.829583
  H      -1.916494     -0.816800      2.294302
  H      -1.520118      2.682883     -1.046244
  H      -2.672332      1.340299     -1.378499
  H      -1.639733      1.983270     -2.698835
  H       2.264991      0.965919      0.591231
18
Coordinates from ORCA-job opt E -1718.463200792798
  C      -1.630304     -1.543310      1.527590
  O      -1.438018     -0.885197      0.269035
  P      -0.380319      0.283024      0.104427
  O      -0.291838      1.284701      1.186260
  O      -0.652437      0.808832     -1.364878
  C      -1.690636      1.762271     -1.629009
  O       0.992900     -0.564360     -0.132569
  C       2.212354     -0.023893      0.119919
  C       3.329053     -0.680029     -0.209419
  Cl      4.888429     -0.015929      0.116997
  Cl      3.302836     -2.226700     -0.970112
  H      -2.449480     -2.255879      1.384391
  H      -0.716063     -2.080910      1.816168
  H      -1.895928     -0.811916      2.302495
  H      -1.526569      2.675397     -1.041162
  H      -2.672241      1.330936     -1.388076
  H      -1.638325      1.989496     -2.698945
  H       2.256586      0.953467      0.606889
18
Coordinates from ORCA-job opt E -1718.463334074629
  C      -1.619205     -1.526001      1.533139
  O      -1.451603     -0.862826      0.274205
  P      -0.375265      0.288031      0.090992
  O      -0.267872      1.299727      1.165638
  O      -0.654571      0.805451     -1.381307
  C      -1.702400      1.748037     -1.641600
  O       0.992046     -0.569343     -0.147098
  C       2.210301     -0.046858      0.143361
  C       3.331447     -0.679705     -0.207934
  Cl      4.882241     -0.025634      0.172598
  Cl      3.316214     -2.182557     -1.052085
  H      -2.472748     -2.203399      1.421163
  H      -0.718444     -2.106070      1.780519
  H      -1.822916     -0.794222      2.326911
  H      -1.559368      2.654087     -1.036534
  H      -2.681984      1.300347     -1.421232
  H      -1.643073      1.998543     -2.706278
  H       2.237200      0.902393      0.685542
18
Coordinates from ORCA-job opt E -1718.463391397352
  C      -1.604942     -1.500343      1.543583
  O      -1.454732     -0.841652      0.280216
  P      -0.368228      0.296056      0.073872
  O      -0.238510      1.316095      1.139674
  O      -0.661912      0.801075     -1.399809
  C      -1.722670      1.729201     -1.658726
  O       0.993328     -0.569172     -0.173158
  C       2.208477     -0.077191      0.177738
  C       3.334585     -0.679159     -0.208013
  Cl      4.877922     -0.063274      0.256315
  Cl      3.332495     -2.099281     -1.185101
  H      -2.488763     -2.142577      1.462638
  H      -0.720629     -2.117328      1.759656
  H      -1.751470     -0.763168      2.345327
  H      -1.605363      2.627635     -1.036576
  H      -2.697405      1.260645     -1.460668
  H      -1.653835      2.000793     -2.717780
  H       2.221652      0.821646      0.800813
18
Coordinates from ORCA-job opt E -1718.463429700791
  C      -1.597975     -1.492057      1.540939
  O      -1.450860     -0.832858      0.277036
  P      -0.364017      0.304524      0.071273
  O      -0.234187      1.322118      1.138504
  O      -0.658716      0.810095     -1.401850
  C      -1.734073      1.722181     -1.660241
  O       0.995787     -0.560318     -0.178422
  C       2.212387     -0.077454      0.183081
  C       3.335300     -0.683648     -0.206827
  Cl      4.881311     -0.092762      0.279787
  Cl      3.326364     -2.091033     -1.201710
  H      -2.487913     -2.126471      1.465307
  H      -0.717153     -2.116280      1.750180
  H      -1.733239     -0.754748      2.344573
  H      -1.641020      2.614870     -1.025816
  H      -2.701782      1.232752     -1.479117
  H      -1.658709      2.008384     -2.714996
  H       2.228496      0.812706      0.818297
18
Coordinates from ORCA-job opt E -1718.463459412090
  C      -1.594614     -1.484648      1.532557
  O      -1.442072     -0.825076      0.268938
  P      -0.357358      0.316061      0.073714
  O      -0.234341      1.324802      1.147881
  O      -0.648556      0.828793     -1.397367
  C      -1.746742      1.714378     -1.656141
  O       1.001192     -0.545183     -0.179127
  C       2.221460     -0.069392      0.183576
  C       3.336763     -0.693768     -0.202749
  Cl      4.890699     -0.122434      0.281791
  Cl      3.311697     -2.108028     -1.186748
  H      -2.487795     -2.114031      1.454205
  H      -0.716291     -2.112044      1.741743
  H      -1.727893     -0.747039      2.336023
  H      -1.693790      2.595145     -1.000932
  H      -2.701292      1.190799     -1.504223
  H      -1.659619      2.025257     -2.702881
  H       2.248553      0.826408      0.809739
18
Coordinates from ORCA-job opt E -1718.463464463411
  C      -1.591725     -1.475198      1.533658
  O      -1.438337     -0.820673      0.267702
  P      -0.353106      0.319520      0.067996
  O      -0.224655      1.327383      1.142415
  O      -0.650671      0.832280     -1.401738
  C      -1.756940      1.708240     -1.658087
  O       1.004897     -0.540652     -0.192007
  C       2.223946     -0.076689      0.189218
  C       3.340312     -0.696462     -0.201270
  Cl      4.892232     -0.139249      0.306589
  Cl      3.319659     -2.090276     -1.214082
  H      -2.492286     -2.094692      1.461787
  H      -0.718928     -2.111300      1.739407
  H      -1.712461     -0.733941      2.335686
  H      -1.718473      2.581790     -0.992270
  H      -2.705975      1.171558     -1.518298
  H      -1.666272      2.032407     -2.700450
  H       2.248782      0.805953      0.833745
18
Coordinates from ORCA-job opt E -1718.463475327756
  C      -1.591973     -1.472117      1.531962
  O      -1.434953     -0.820140      0.265293
  P      -0.350119      0.320963      0.065426
  O      -0.219616      1.326292      1.142198
  O      -0.651695      0.836876     -1.402512
  C      -1.763263      1.706670     -1.655898
  O       1.008553     -0.536338     -0.200968
  C       2.227160     -0.076554      0.185250
  C       3.343696     -0.700143     -0.198042
  Cl      4.894843     -0.143589      0.314024
  Cl      3.324954     -2.097356     -1.206172
  H      -2.496382     -2.086085      1.461230
  H      -0.722801     -2.113221      1.737528
  H      -1.707479     -0.729166      2.333142
  H      -1.734095      2.574010     -0.981498
  H      -2.708434      1.161086     -1.524877
  H      -1.670452      2.041805     -2.694580
  H       2.252056      0.807007      0.828494
18
Coordinates from ORCA-job opt E -1718.463483513676
  C      -1.589999     -1.467775      1.527712
  O      -1.428972     -0.817085      0.260871
  P      -0.345055      0.325554      0.061592
  O      -0.211594      1.325946      1.142883
  O      -0.652586      0.846976     -1.403268
  C      -1.774888      1.704089     -1.652130
  O       1.014308     -0.527077     -0.215434
  C       2.232574     -0.074499      0.178324
  C       3.348103     -0.708385     -0.190111
  Cl      4.898780     -0.154063      0.326709
  Cl      3.329210     -2.114413     -1.185854
  H      -2.501544     -2.071401      1.459210
  H      -0.727506     -2.118888      1.730079
  H      -1.694626     -0.724191      2.329792
  H      -1.764866      2.559957     -0.962558
  H      -2.712489      1.141734     -1.538839
  H      -1.677896      2.059456     -2.683689
  H       2.259046      0.814065      0.814712
18
Coordinates from ORCA-job opt E -1718.463486316617
  C      -1.585672     -1.463616      1.524960
  O      -1.425434     -0.811925      0.258503
  P      -0.341695      0.330778      0.058483
  O      -0.205402      1.328506      1.141993
  O      -0.653149      0.854687     -1.404628
  C      -1.784084      1.701093     -1.651172
  O       1.017419     -0.519931     -0.225062
  C       2.235489     -0.074274      0.176709
  C       3.349869     -0.714378     -0.184373
  Cl      4.900179     -0.167261      0.340970
  Cl      3.329431     -2.121063     -1.179173
  H      -2.503047     -2.058828      1.460245
  H      -0.728154     -2.123071      1.721408
  H      -1.679306     -0.720955      2.329262
  H      -1.790086      2.548312     -0.950895
  H      -2.715462      1.125813     -1.552372
  H      -1.683797      2.071292     -2.677216
  H       2.262900      0.814821      0.812359
18
Coordinates from ORCA-job opt E -1718.463493850562
  C      -1.571646     -1.450009      1.516978
  O      -1.416255     -0.793046      0.252683
  P      -0.331758      0.348459      0.050522
  O      -0.186890      1.338968      1.139705
  O      -0.653085      0.879101     -1.407883
  C      -1.810721      1.690003     -1.649885
  O       1.025849     -0.498296     -0.250213
  C       2.243494     -0.074310      0.175284
  C       3.353274     -0.732001     -0.168221
  Cl      4.903132     -0.209258      0.381819
  Cl      3.325873     -2.136806     -1.165614
  H      -2.506396     -2.019018      1.465158
  H      -0.729673     -2.134933      1.692364
  H      -1.629817     -0.712146      2.329016
  H      -1.869776      2.506642     -0.916407
  H      -2.720116      1.074610     -1.600548
  H      -1.699821      2.107890     -2.656433
  H       2.274332      0.814148      0.811675
18
Coordinates from ORCA-job opt E -1718.463402606499
  C      -1.537680     -1.417436      1.498221
  O      -1.395728     -0.744160      0.241144
  P      -0.308787      0.394137      0.035336
  O      -0.145086      1.367831      1.137293
  O      -0.651021      0.940631     -1.412098
  C      -1.868971      1.659440     -1.648991
  O       1.045338     -0.443120     -0.302956
  C       2.260897     -0.072327      0.174685
  C       3.355573     -0.772458     -0.132129
  Cl      4.904184     -0.310208      0.471152
  Cl      3.306847     -2.171415     -1.137201
  H      -2.510547     -1.921232      1.480586
  H      -0.737762     -2.161914      1.619205
  H      -1.507754     -0.697585      2.327773
  H      -2.057874      2.381617     -0.841763
  H      -2.711328      0.957951     -1.729034
  H      -1.742948      2.196885     -2.595476
  H       2.302643      0.813363      0.814252
18
Coordinates from ORCA-job opt E -1718.463494923129
  C      -1.558442     -1.439573      1.511667
  O      -1.410364     -0.776109      0.250105
  P      -0.324860      0.363408      0.043789
  O      -0.171346      1.350172      1.135247
  O      -0.655037      0.897234     -1.411212
  C      -1.831525      1.681199     -1.650857
  O       1.031331     -0.481704     -0.269413
  C       2.247779     -0.075790      0.176614
  C       3.354210     -0.745176     -0.155179
  Cl      4.902828     -0.243059      0.416706
  Cl      3.322874     -2.144952     -1.159771
  H      -2.507849     -1.984973      1.473325
  H      -0.730667     -2.146668      1.665076
  H      -1.582456     -0.707772      2.330858
  H      -1.931369      2.470927     -0.892629
  H      -2.722223      1.037366     -1.641528
  H      -1.713265      2.136214     -2.640374
  H       2.280381      0.809257      0.817576
18
Coordinates from ORCA-job opt E -1718.463501594453
  C      -1.563525     -1.448640      1.515281
  O      -1.418186     -0.782585      0.254736
  P      -0.331211      0.355509      0.048908
  O      -0.181417      1.347290      1.136253
  O      -0.654486      0.884625     -1.409430
  C      -1.817160      1.687787     -1.652717
  O       1.024767     -0.494146     -0.253248
  C       2.242314     -0.074796      0.177750
  C       3.351057     -0.736418     -0.161700
  Cl      4.900836     -0.219469      0.393433
  Cl      3.321673     -2.140863     -1.159808
  H      -2.506975     -2.003946      1.473117
  H      -0.729018     -2.147280      1.671130
  H      -1.597893     -0.717713      2.334899
  H      -1.891592      2.495206     -0.910434
  H      -2.721312      1.063670     -1.619092
  H      -1.701167      2.118299     -2.653411
  H       2.273295      0.813470      0.814331
18
Coordinates from ORCA-job opt E -1718.463500254766
  C      -1.562878     -1.449007      1.515317
  O      -1.418950     -0.781402      0.255446
  P      -0.331580      0.356208      0.049498
  O      -0.181657      1.348407      1.136377
  O      -0.654275      0.884926     -1.409101
  C      -1.817012      1.687648     -1.653374
  O       1.024126     -0.494271     -0.251763
  C       2.241935     -0.074366      0.178069
  C       3.350404     -0.736377     -0.161593
  Cl      4.900632     -0.219517      0.392377
  Cl      3.320233     -2.141698     -1.158457
  H      -2.507412     -2.002547      1.474355
  H      -0.729235     -2.149306      1.668221
  H      -1.594039     -0.719216      2.336080
  H      -1.893609      2.493687     -0.909830
  H      -2.720659      1.062670     -1.622549
  H      -1.699385      2.119865     -2.653115
  H       2.273360      0.814297      0.814043
