42
Coordinates from ORCA-job opt E -1378.794721545801
  C          -4.54025806671246     -0.18877157966661     -0.00924158298857
  C          -3.26594269804817     -0.50955497298459     -0.79263916901380
  N          -2.02407415789012      0.05328316674321     -0.27276952774219
  C          -1.65126122216586     -0.39859125347183      1.06228983783080
  C          -1.43804966964976     -1.90042710931351      1.17348526815981
  C          -1.94619859590680      1.49574590453188     -0.40407369447329
  C          -0.52895037678647      2.03394671135305     -0.55223799751472
  S           0.28420491930507      1.67991550877090     -2.15021649818021
  P           1.19652845463314     -0.21338337333424     -1.93499962908800
  C           0.02898531896737     -1.45124249033148     -2.49644703338806
  O           2.50949415622066     -0.22723803431276     -2.65005876488907
  O           1.29069490281580     -0.44645263548677     -0.33958259745186
  C           2.51716967321215     -0.71196583527064      0.35305253298548
  C           2.97148179836336      0.48426749877577      1.18003282647160
  C           3.37310206515687      1.66999228564847      0.30421035638538
  C           4.11555369218280      0.05832228825116      2.10039518151769
  H          -5.41416375254275     -0.62978441706191     -0.51218926820582
  H          -4.70991802781693      0.89700782189870      0.06544468604211
  H          -4.50641863768598     -0.59710799232351      1.01272089618079
  H          -3.37337523913386     -0.15294523909122     -1.83061568857554
  H          -3.14876611759569     -1.60330450855517     -0.86587954714622
  H          -0.70633093759208      0.09933304876118      1.32523040053926
  H          -2.39295598493342     -0.06762500327153      1.82248550091749
  H          -0.68135585866133     -2.23636093949675      0.44876578311611
  H          -1.07896310054224     -2.15231905156049      2.18257834877794
  H          -2.36264422645597     -2.47261820347716      1.00271223647934
  H          -2.40133041704278      2.01853284528885      0.46595966796519
  H          -2.52960669221748      1.80108178261479     -1.28694322723895
  H          -0.54833133874728      3.13302989242039     -0.51213610382434
  H           0.13427906404642      1.69278542275012      0.25412845079773
  H           0.47900970754795     -2.44407416093869     -2.35119876573161
  H          -0.89135417771937     -1.34688513969259     -1.90792589930409
  H          -0.17424575111495     -1.28489557607424     -3.56325766785427
  H           3.29469183139481     -1.00022276375493     -0.37341207661348
  H           2.31384131245139     -1.57531805530090      1.00426943405915
  H           2.11190542478570      0.78241863661986      1.80790901470316
  H           2.55652828244770      1.98664327220571     -0.36167215714857
  H           3.65559080637057      2.53599681485239      0.92199075669889
  H           4.23565086707823      1.40947518054133     -0.33145901602819
  H           4.98775980427205     -0.27664308265004      1.51469539502001
  H           3.81715203250034     -0.76751666823399      2.76474046386835
  H           4.44087094320937      0.89860139362779      2.73185888388458
