42
Coordinates from ORCA-job opt E -1378.783821300327
  C      -4.391731     -0.220680      0.313705
  C      -3.181823     -0.666763     -0.502550
  N      -1.966088      0.159014     -0.382261
  C      -1.431303      0.230103      0.989951
  C      -1.040939     -1.127042      1.567063
  C      -2.184732      1.511595     -0.936676
  C      -0.911425      2.211438     -1.439286
  S      -0.227522      1.443048     -2.933972
  P       1.115414     -0.013565     -2.288880
  C       0.344482     -1.626543     -2.338333
  O       2.351748      0.014230     -3.147245
  O       1.478581      0.196105     -0.724616
  C       2.668616     -0.405353     -0.237494
  C       2.818373     -0.108776      1.258155
  C       2.917044      1.395301      1.521369
  C       4.039107     -0.829942      1.825066
  H      -5.240117     -0.881485      0.106064
  H      -4.699267      0.798278      0.060257
  H      -4.196378     -0.268450      1.388946
  H      -3.471758     -0.709266     -1.560713
  H      -2.944928     -1.706397     -0.248513
  H      -0.525404      0.845463      0.996196
  H      -2.137697      0.722442      1.668961
  H      -0.360688     -1.662798      0.897445
  H      -0.527308     -0.989108      2.524401
  H      -1.914466     -1.757962      1.755829
  H      -2.666363      2.152241     -0.185985
  H      -2.886539      1.466425     -1.780993
  H      -1.172867      3.240789     -1.708747
  H      -0.141883      2.280143     -0.666192
  H       1.055858     -2.400496     -2.037237
  H      -0.519008     -1.687718     -1.675878
  H       0.011024     -1.853171     -3.355143
  H       3.526515     -0.009748     -0.792219
  H       2.614682     -1.486059     -0.404800
  H       1.924538     -0.473509      1.778144
  H       2.017957      1.917305      1.178070
  H       3.025336      1.594668      2.592848
  H       3.779922      1.831954      1.007113
  H       4.961640     -0.491236      1.341354
  H       3.955381     -1.911630      1.676055
  H       4.134017     -0.647716      2.900741
42
Coordinates from ORCA-job opt E -1378.789673395578
  C      -4.339081     -0.245625      0.288635
  C      -3.147478     -0.620782     -0.594755
  N      -1.925918      0.166681     -0.424898
  C      -1.355168      0.101036      0.917905
  C      -1.004811     -1.313716      1.361714
  C      -2.099176      1.549533     -0.856357
  C      -0.801776      2.197238     -1.329275
  S      -0.159738      1.467390     -2.866001
  P       1.059514     -0.102127     -2.244507
  C       0.104191     -1.617950     -2.208746
  O       2.260121     -0.207089     -3.141193
  O       1.451735      0.189351     -0.699217
  C       2.629827     -0.417134     -0.164988
  C       2.796283      0.009921      1.286371
  C       2.917892      1.530739      1.410681
  C       4.004678     -0.698572      1.897707
  H      -5.204041     -0.875354      0.031150
  H      -4.640079      0.803675      0.146650
  H      -4.124728     -0.402287      1.356919
  H      -3.447027     -0.549021     -1.653445
  H      -2.905598     -1.685264     -0.442621
  H      -0.426517      0.692144      0.928123
  H      -2.029514      0.566515      1.666222
  H      -0.354088     -1.808455      0.624714
  H      -0.466766     -1.280951      2.320804
  H      -1.899368     -1.937542      1.508727
  H      -2.532282      2.175508     -0.049240
  H      -2.815327      1.583121     -1.691910
  H      -0.992542      3.256400     -1.555565
  H      -0.018981      2.172368     -0.558295
  H       0.743585     -2.448991     -1.877176
  H      -0.754053     -1.534133     -1.528123
  H      -0.264743     -1.848531     -3.218446
  H       3.503841     -0.101657     -0.757978
  H       2.543520     -1.515375     -0.231132
  H       1.892651     -0.303266      1.836372
  H       2.025207      2.037853      1.014633
  H       3.030290      1.826272      2.464866
  H       3.795825      1.904432      0.858421
  H       4.934833     -0.418094      1.377411
  H       3.898379     -1.793398      1.837549
  H       4.116426     -0.429728      2.958291
42
Coordinates from ORCA-job opt E -1378.790811946994
  C      -4.331455     -0.199819      0.351878
  C      -3.109746     -0.612053     -0.477448
  N      -1.898308      0.170290     -0.305042
  C      -1.371196      0.160327      1.046678
  C      -1.057324     -1.228578      1.583937
  C      -2.025073      1.518185     -0.793816
  C      -0.722494      2.123925     -1.289628
  S      -0.093115      1.451698     -2.874426
  P       1.160618     -0.147371     -2.398466
  C       0.236243     -1.681218     -2.526882
  O       2.379211     -0.117208     -3.267611
  O       1.458777      0.103234     -0.824709
  C       2.649720     -0.442937     -0.230366
  C       2.703774     -0.032757      1.224905
  C       2.698348      1.489295      1.379428
  C       3.924866     -0.679639      1.880325
  H      -5.194120     -0.837135      0.087500
  H      -4.623048      0.850551      0.162567
  H      -4.155501     -0.314867      1.438049
  H      -3.360654     -0.575191     -1.554421
  H      -2.863661     -1.670796     -0.266070
  H      -0.438424      0.751393      1.034857
  H      -2.066962      0.684248      1.753586
  H      -0.384096     -1.771818      0.897292
  H      -0.552542     -1.145879      2.562282
  H      -1.965115     -1.842186      1.731198
  H      -2.436081      2.202157     -0.008377
  H      -2.746848      1.525733     -1.627734
  H      -0.886347      3.191844     -1.512504
  H       0.083882      2.066291     -0.539269
  H       0.899967     -2.514861     -2.232407
  H      -0.650992     -1.645203     -1.875153
  H      -0.074307     -1.828094     -3.575981
  H       3.537986     -0.058042     -0.769798
  H       2.645926     -1.550119     -0.318298
  H       1.793630     -0.437994      1.710591
  H       1.792758      1.937694      0.933717
  H       2.727092      1.772647      2.447092
  H       3.582567      1.938929      0.884927
  H       4.862046     -0.316916      1.414364
  H       3.904637     -1.782168      1.788351
  H       3.965361     -0.430462      2.954884
42
Coordinates from ORCA-job opt E -1378.792606800747
  C      -4.343243     -0.270147      0.286564
  C      -3.104618     -0.633381     -0.536280
  N      -1.908853      0.175780     -0.324014
  C      -1.372886      0.135418      1.032101
  C      -1.014954     -1.258547      1.526078
  C      -2.045322      1.538522     -0.802345
  C      -0.740348      2.162676     -1.277705
  S      -0.092653      1.496277     -2.853512
  P       1.119832     -0.132192     -2.352078
  C       0.137347     -1.632583     -2.406723
  O       2.320228     -0.181819     -3.244518
  O       1.456224      0.143368     -0.791371
  C       2.623507     -0.446693     -0.200960
  C       2.735669      0.007337      1.244586
  C       2.833595      1.528348      1.353638
  C       3.926701     -0.690104      1.901447
  H      -5.185875     -0.917152     -0.003111
  H      -4.654035      0.774326      0.120777
  H      -4.177598     -0.408100      1.367133
  H      -3.346540     -0.572500     -1.611116
  H      -2.843610     -1.689620     -0.354202
  H      -0.457981      0.747632      1.040274
  H      -2.072614      0.615791      1.754750
  H      -0.327771     -1.758124      0.824935
  H      -0.512382     -1.190403      2.503280
  H      -1.899490     -1.901420      1.655842
  H      -2.468314      2.210032     -0.020876
  H      -2.757686      1.551457     -1.642779
  H      -0.903002      3.229444     -1.494472
  H       0.055185      2.099495     -0.523351
  H       0.769024     -2.476847     -2.088588
  H      -0.733722     -1.533556     -1.746888
  H      -0.192183     -1.804619     -3.441715
  H       3.515473     -0.136719     -0.773334
  H       2.549506     -1.547847     -0.252920
  H       1.814433     -0.320774      1.759822
  H       1.954949      2.020274      0.910465
  H       2.899956      1.840261      2.407970
  H       3.732314      1.902281      0.833043
  H       4.872090     -0.403044      1.409828
  H       3.836431     -1.786997      1.846833
  H       4.003215     -0.410401      2.963492
42
Coordinates from ORCA-job opt E -1378.792856700415
  C      -4.355551     -0.259614      0.308037
  C      -3.156696     -0.613480     -0.572401
  N      -1.938836      0.162709     -0.359018
  C      -1.339859      0.037209      0.965763
  C      -0.967588     -1.385278      1.353277
  C      -2.051830      1.548424     -0.778761
  C      -0.735009      2.156871     -1.244639
  S      -0.090574      1.507158     -2.827767
  P       1.108555     -0.136775     -2.319208
  C       0.098759     -1.619217     -2.315058
  O       2.292760     -0.230231     -3.227007
  O       1.459718      0.173433     -0.769568
  C       2.588011     -0.449854     -0.145106
  C       2.734939      0.091062      1.269995
  C       2.933946      1.604674      1.280134
  C       3.878781     -0.636029      1.975840
  H      -5.222880     -0.873377      0.023938
  H      -4.644514      0.796682      0.197935
  H      -4.153818     -0.445939      1.373332
  H      -3.432936     -0.495638     -1.632831
  H      -2.915906     -1.681199     -0.447103
  H      -0.420629      0.641179      0.966332
  H      -1.995785      0.475918      1.748218
  H      -0.310414     -1.837769      0.595475
  H      -0.426400     -1.379976      2.310625
  H      -1.846645     -2.034206      1.476438
  H      -2.442798      2.201228      0.030560
  H      -2.776969      1.611997     -1.604912
  H      -0.869989      3.229944     -1.442309
  H       0.058029      2.058572     -0.493818
  H       0.716310     -2.461786     -1.971814
  H      -0.758734     -1.467941     -1.650758
  H      -0.239603     -1.814519     -3.341175
  H       3.491935     -0.239415     -0.740477
  H       2.438930     -1.541985     -0.126085
  H       1.795269     -0.141543      1.801986
  H       2.094590      2.122292      0.795367
  H       3.014283      1.981153      2.310517
  H       3.857477      1.881425      0.746523
  H       4.838609     -0.444475      1.469935
  H       3.717688     -1.724081      1.993588
  H       3.975372     -0.292474      3.016004
42
Coordinates from ORCA-job opt E -1378.793074721846
  C      -4.335569     -0.314968      0.265118
  C      -3.097600     -0.651871     -0.567160
  N      -1.913594      0.167415     -0.332973
  C      -1.362780      0.091694      1.014933
  C      -0.959268     -1.308950      1.448513
  C      -2.059297      1.538529     -0.785457
  C      -0.757391      2.182114     -1.245446
  S      -0.091120      1.547953     -2.826313
  P       1.103088     -0.106097     -2.333106
  C       0.086964     -1.584418     -2.350095
  O       2.288949     -0.191798     -3.239069
  O       1.452611      0.184614     -0.779495
  C       2.566574     -0.466539     -0.156543
  C       2.731330      0.067546      1.258427
  C       2.965298      1.576419      1.270419
  C       3.860775     -0.687836      1.958045
  H      -5.174088     -0.964015     -0.029124
  H      -4.654043      0.728863      0.117592
  H      -4.161821     -0.466875      1.341518
  H      -3.341454     -0.568261     -1.639138
  H      -2.827269     -1.708311     -0.406455
  H      -0.465236      0.727646      1.037217
  H      -2.063835      0.524622      1.761908
  H      -0.252427     -1.752581      0.730846
  H      -0.462928     -1.265677      2.429379
  H      -1.820547     -1.986765      1.545461
  H      -2.483305      2.195711      0.004643
  H      -2.774202      1.561797     -1.622791
  H      -0.922077      3.250730     -1.446632
  H       0.035937      2.106885     -0.491436
  H       0.697482     -2.432778     -2.007071
  H      -0.776060     -1.430353     -1.691268
  H      -0.242519     -1.769554     -3.381615
  H       3.474706     -0.276869     -0.753624
  H       2.391063     -1.555684     -0.138446
  H       1.788910     -0.145102      1.793395
  H       2.136349      2.114581      0.788626
  H       3.057371      1.949440      2.301603
  H       3.893892      1.832806      0.733996
  H       4.823227     -0.518338      1.447947
  H       3.673820     -1.772542      1.975038
  H       3.970087     -0.348050      2.998633
42
Coordinates from ORCA-job opt E -1378.793122745688
  C      -4.355354     -0.288764      0.295903
  C      -3.132235     -0.641395     -0.552582
  N      -1.934769      0.162765     -0.333527
  C      -1.367401      0.079529      1.006525
  C      -0.969066     -1.325812      1.430380
  C      -2.068984      1.534688     -0.785181
  C      -0.764417      2.171358     -1.247018
  S      -0.096866      1.535015     -2.826963
  P       1.125598     -0.101746     -2.338551
  C       0.139039     -1.600012     -2.375184
  O       2.318303     -0.154984     -3.237775
  O       1.460761      0.182752     -0.780832
  C       2.569404     -0.470043     -0.150062
  C       2.732940      0.071545      1.261556
  C       2.967504      1.580602      1.264082
  C       3.861193     -0.680628      1.966666
  H      -5.205975     -0.928483      0.015286
  H      -4.663355      0.758830      0.150444
  H      -4.167888     -0.440490      1.370394
  H      -3.389026     -0.554824     -1.621611
  H      -2.873228     -1.701461     -0.395147
  H      -0.464116      0.708297      1.018963
  H      -2.055055      0.516368      1.764404
  H      -0.272935     -1.771756      0.703221
  H      -0.461502     -1.289560      2.406138
  H      -1.834456     -1.997831      1.534708
  H      -2.486020      2.194753      0.007152
  H      -2.786235      1.564279     -1.620445
  H      -0.928033      3.239890     -1.450660
  H       0.028598      2.098106     -0.491768
  H       0.762075     -2.439396     -2.031796
  H      -0.730916     -1.462815     -1.721059
  H      -0.178440     -1.783684     -3.411080
  H       3.480700     -0.287858     -0.745418
  H       2.388551     -1.558806     -0.125089
  H       1.789798     -0.137773      1.796808
  H       2.139553      2.115677      0.776307
  H       3.057247      1.960907      2.293146
  H       3.897585      1.833233      0.727532
  H       4.824510     -0.516418      1.455674
  H       3.672339     -1.765329      1.991343
  H       3.970576     -0.333594      3.005118
42
Coordinates from ORCA-job opt E -1378.793186460201
  C      -4.348092     -0.310672      0.289416
  C      -3.122119     -0.651195     -0.560144
  N      -1.930401      0.159571     -0.333948
  C      -1.360623      0.068356      1.004323
  C      -0.941672     -1.336422      1.410128
  C      -2.073205      1.533278     -0.776722
  C      -0.772309      2.180416     -1.233470
  S      -0.099045      1.558462     -2.816418
  P       1.120616     -0.084100     -2.332762
  C       0.128760     -1.579250     -2.372298
  O       2.314204     -0.136577     -3.230297
  O       1.451349      0.197715     -0.774104
  C       2.532365     -0.483411     -0.127045
  C       2.724248      0.093371      1.266952
  C       3.019364      1.591042      1.221640
  C       3.824401     -0.681846      1.991092
  H      -5.194725     -0.955038      0.007566
  H      -4.662770      0.735395      0.147590
  H      -4.158611     -0.464559      1.363206
  H      -3.378522     -0.559622     -1.628797
  H      -2.856874     -1.710483     -0.408524
  H      -0.465816      0.708945      1.024077
  H      -2.052665      0.486619      1.768445
  H      -0.233430     -1.759805      0.681260
  H      -0.440720     -1.305916      2.389565
  H      -1.796486     -2.023892      1.499414
  H      -2.494136      2.186972      0.018936
  H      -2.790861      1.563409     -1.611566
  H      -0.941659      3.249300     -1.430187
  H       0.020586      2.106265     -0.477986
  H       0.744146     -2.420443     -2.020115
  H      -0.743319     -1.429319     -1.723502
  H      -0.181795     -1.763863     -3.409995
  H       3.448338     -0.358844     -0.730102
  H       2.303894     -1.561885     -0.068342
  H       1.775670     -0.061170      1.811437
  H       2.212708      2.142760      0.716932
  H       3.126134      2.000342      2.237831
  H       3.957661      1.788759      0.676440
  H       4.790929     -0.574433      1.471262
  H       3.590869     -1.756402      2.051434
  H       3.953611     -0.306699      3.017378
42
Coordinates from ORCA-job opt E -1378.793205146219
  C      -4.346830     -0.328108      0.284392
  C      -3.119846     -0.660760     -0.567013
  N      -1.931004      0.152923     -0.336733
  C      -1.359045      0.054628      0.999843
  C      -0.922746     -1.349127      1.391162
  C      -2.079764      1.528950     -0.770040
  C      -0.780822      2.186269     -1.218065
  S      -0.099176      1.579936     -2.803281
  P       1.119499     -0.065838     -2.325298
  C       0.124463     -1.559399     -2.373177
  O       2.315678     -0.112427     -3.219638
  O       1.444225      0.211281     -0.764946
  C       2.499993     -0.493740     -0.103050
  C       2.722558      0.116669      1.272168
  C       3.076454      1.599478      1.179567
  C       3.794856     -0.679590      2.014722
  H      -5.191244     -0.974931      0.001880
  H      -4.665639      0.717093      0.145876
  H      -4.155344     -0.484444      1.357416
  H      -3.376706     -0.564851     -1.635104
  H      -2.851234     -1.719816     -0.420469
  H      -0.471490      0.704622      1.025262
  H      -2.054104      0.457698      1.769257
  H      -0.210464     -1.756428      0.657391
  H      -0.420548     -1.321910      2.370111
  H      -1.769148     -2.047395      1.475590
  H      -2.506555      2.175053      0.028736
  H      -2.795283      1.561125     -1.606618
  H      -0.955842      3.255676     -1.406977
  H       0.009612      2.111242     -0.460138
  H       0.732929     -2.403794     -2.017089
  H      -0.749230     -1.402483     -1.727933
  H      -0.181510     -1.741617     -3.412486
  H       3.417288     -0.425920     -0.713301
  H       2.226587     -1.559206     -0.009936
  H       1.771300      0.017004      1.825129
  H       2.291182      2.165683      0.657642
  H       3.201045      2.036513      2.182042
  H       4.020796      1.742552      0.627932
  H       4.762165     -0.626528      1.488079
  H       3.519011     -1.741608      2.108360
  H       3.943929     -0.279344      3.028737
42
Coordinates from ORCA-job opt E -1378.793232494134
  C      -4.350819     -0.325773      0.280789
  C      -3.122735     -0.662269     -0.567454
  N      -1.932510      0.149272     -0.336964
  C      -1.364266      0.051995      1.001328
  C      -0.935565     -1.352624      1.398024
  C      -2.079845      1.525529     -0.770667
  C      -0.780047      2.184575     -1.214122
  S      -0.095507      1.581509     -2.799201
  P       1.121553     -0.065091     -2.323631
  C       0.125016     -1.557682     -2.377033
  O       2.319050     -0.108834     -3.216668
  O       1.445297      0.208432     -0.762445
  C       2.505490     -0.492762     -0.103414
  C       2.729429      0.118404      1.271349
  C       3.082193      1.601491      1.177873
  C       3.803205     -0.676905      2.012668
  H      -5.195570     -0.971656     -0.002707
  H      -4.667724      0.719635      0.139781
  H      -4.162188     -0.480849      1.354459
  H      -3.377341     -0.568127     -1.636230
  H      -2.856395     -1.721524     -0.418381
  H      -0.473975      0.698114      1.027092
  H      -2.059335      0.460365      1.767899
  H      -0.229456     -1.768431      0.663324
  H      -0.428886     -1.323735      2.374579
  H      -1.786144     -2.044798      1.489889
  H      -2.510490      2.170583      0.026819
  H      -2.791890      1.557415     -1.610236
  H      -0.956152      3.254144     -1.401119
  H       0.008385      2.109444     -0.454219
  H       0.731613     -2.404756     -2.024151
  H      -0.748650     -1.402813     -1.731157
  H      -0.182166     -1.736223     -3.416572
  H       3.421196     -0.422532     -0.715820
  H       2.235662     -1.558907     -0.009267
  H       1.778810      0.018514      1.825528
  H       2.296585      2.166704      0.655579
  H       3.206387      2.039088      2.180134
  H       4.026579      1.744711      0.626465
  H       4.769877     -0.622372      1.485057
  H       3.528749     -1.739259      2.106104
  H       3.952581     -0.276869      3.026714
42
Coordinates from ORCA-job opt E -1378.793254853801
  C      -4.363768     -0.326385      0.273259
  C      -3.133792     -0.668379     -0.569885
  N      -1.940869      0.139289     -0.338432
  C      -1.378727      0.041836      1.002729
  C      -0.969442     -1.366075      1.408452
  C      -2.086038      1.516454     -0.771146
  C      -0.784001      2.181753     -1.199345
  S      -0.086220      1.592032     -2.783490
  P       1.129893     -0.055958     -2.316347
  C       0.132151     -1.547031     -2.387846
  O       2.331808     -0.088922     -3.204390
  O       1.447459      0.204843     -0.751896
  C       2.511362     -0.493611     -0.095916
  C       2.749684      0.130244      1.270879
  C       3.119498      1.607967      1.158888
  C       3.817796     -0.669160      2.015913
  H      -5.208481     -0.971427     -0.012260
  H      -4.678529      0.719085      0.128383
  H      -4.179933     -0.479593      1.348020
  H      -3.384664     -0.576610     -1.639838
  H      -2.870972     -1.727994     -0.417150
  H      -0.481117      0.677684      1.028869
  H      -2.072072      0.462051      1.764482
  H      -0.281244     -1.802306      0.668708
  H      -0.448972     -1.336208      2.377628
  H      -1.830676     -2.042222      1.518968
  H      -2.528519      2.157406      0.023105
  H      -2.787716      1.547688     -1.619514
  H      -0.963849      3.251697     -1.380434
  H      -0.002122      2.106298     -0.432841
  H       0.734416     -2.400662     -2.043241
  H      -0.742205     -1.397694     -1.741236
  H      -0.176151     -1.714350     -3.428942
  H       3.422053     -0.434160     -0.716860
  H       2.237645     -1.557383      0.011331
  H       1.800371      0.048423      1.830341
  H       2.340496      2.175426      0.629314
  H       3.248806      2.056425      2.155696
  H       4.065781      1.732603      0.606288
  H       4.782536     -0.629789      1.483445
  H       3.532731     -1.727602      2.121037
  H       3.975590     -0.260549      3.025274
42
Coordinates from ORCA-job opt E -1378.793267665719
  C      -4.364087     -0.335100      0.270519
  C      -3.132330     -0.671870     -0.572096
  N      -1.941972      0.138786     -0.337667
  C      -1.380572      0.039657      1.003697
  C      -0.964132     -1.367666      1.404100
  C      -2.089939      1.516196     -0.768329
  C      -0.788458      2.184874     -1.192751
  S      -0.086098      1.600218     -2.776791
  P       1.129385     -0.049352     -2.312286
  C       0.131918     -1.540099     -2.391435
  O       2.333622     -0.078658     -3.197184
  O       1.442186      0.206553     -0.746159
  C       2.499096     -0.498474     -0.086099
  C       2.750731      0.137989      1.272435
  C       3.142924      1.608360      1.141280
  C       3.808478     -0.668454      2.024632
  H      -5.206439     -0.982491     -0.016715
  H      -4.682180      0.709554      0.127001
  H      -4.180651     -0.489338      1.345220
  H      -3.382395     -0.578611     -1.642126
  H      -2.866487     -1.730985     -0.421152
  H      -0.486398      0.680189      1.033161
  H      -2.077168      0.453105      1.766218
  H      -0.271486     -1.796312      0.663862
  H      -0.446323     -1.339562      2.374713
  H      -1.821632     -2.049463      1.508823
  H      -2.535749      2.154943      0.025868
  H      -2.789736      1.546720     -1.618286
  H      -0.970146      3.254785     -1.372273
  H      -0.007843      2.109687     -0.424856
  H       0.732765     -2.395276     -2.048210
  H      -0.743618     -1.391690     -1.746122
  H      -0.174235     -1.703523     -3.433797
  H       3.408200     -0.458347     -0.711005
  H       2.211212     -1.557158      0.034187
  H       1.801634      0.077601      1.835001
  H       2.372101      2.180826      0.605106
  H       3.280193      2.067498      2.132156
  H       4.090395      1.711232      0.586200
  H       4.772147     -0.650532      1.489020
  H       3.507550     -1.721022      2.143814
  H       3.975540     -0.249662      3.028324
42
Coordinates from ORCA-job opt E -1378.793269212902
  C      -4.365878     -0.339034      0.266485
  C      -3.132735     -0.671879     -0.575525
  N      -1.943371      0.138946     -0.336378
  C      -1.383914      0.035839      1.005651
  C      -0.968240     -1.372938      1.401584
  C      -2.090773      1.517209     -0.764369
  C      -0.788339      2.186377     -1.185057
  S      -0.082955      1.604982     -2.768956
  P       1.128837     -0.048125     -2.306750
  C       0.130244     -1.537087     -2.394698
  O       2.335809     -0.076187     -3.187791
  O       1.436496      0.201223     -0.738575
  C       2.493499     -0.503234     -0.078070
  C       2.754554      0.143746      1.273564
  C       3.155898      1.610144      1.126996
  C       3.809907     -0.662359      2.029546
  H      -5.207039     -0.986393     -0.024405
  H      -4.684973      0.705756      0.126160
  H      -4.184020     -0.496702      1.340967
  H      -3.381356     -0.574865     -1.645559
  H      -2.866140     -1.731260     -0.427925
  H      -0.489936      0.676401      1.038537
  H      -2.082286      0.446433      1.768108
  H      -0.273743     -1.798488      0.661073
  H      -0.453046     -1.349322      2.373653
  H      -1.825869     -2.055456      1.500413
  H      -2.538402      2.154489      0.029964
  H      -2.788556      1.548827     -1.615942
  H      -0.968999      3.256677     -1.363379
  H      -0.008768      2.109585     -0.416152
  H       0.730155     -2.394431     -2.055273
  H      -0.746195     -1.391446     -1.750030
  H      -0.174729     -1.694668     -3.438346
  H       3.399486     -0.471786     -0.707991
  H       2.201382     -1.559665      0.051719
  H       1.807085      0.094581      1.839933
  H       2.387255      2.182614      0.587560
  H       3.299180      2.077888      2.112982
  H       4.102252      1.701114      0.567888
  H       4.771194     -0.656555      1.489342
  H       3.502356     -1.711547      2.161060
  H       3.984676     -0.234271      3.027990
42
Coordinates from ORCA-job opt E -1378.793286098239
  C      -4.371345     -0.342954      0.255250
  C      -3.134885     -0.669511     -0.584228
  N      -1.946819      0.139947     -0.334121
  C      -1.392942      0.028750      1.009688
  C      -0.977328     -1.382341      1.396957
  C      -2.090922      1.520200     -0.756190
  C      -0.785877      2.188471     -1.170043
  S      -0.075894      1.611015     -2.753385
  P       1.126194     -0.050351     -2.293916
  C       0.124136     -1.535055     -2.397735
  O       2.338303     -0.079056     -3.167638
  O       1.425226      0.186397     -0.722141
  C       2.487234     -0.512603     -0.063739
  C       2.764294      0.151790      1.276089
  C       3.172176      1.613550      1.104190
  C       3.822429     -0.648604      2.034334
  H      -5.211013     -0.988589     -0.043828
  H      -4.690361      0.702712      0.121310
  H      -4.193891     -0.508073      1.329349
  H      -3.379332     -0.564178     -1.654407
  H      -2.868730     -1.729931     -0.443563
  H      -0.499955      0.670108      1.050479
  H      -2.095733      0.433030      1.771429
  H      -0.276198     -1.799708      0.657907
  H      -0.470190     -1.367169      2.373371
  H      -1.834317     -2.067602      1.481525
  H      -2.540110      2.154937      0.039253
  H      -2.785701      1.556063     -1.610019
  H      -0.962868      3.259722     -1.346405
  H      -0.008430      2.107534     -0.399360
  H       0.722804     -2.396043     -2.065420
  H      -0.754006     -1.395067     -1.754447
  H      -0.178424     -1.682019     -3.443699
  H       3.386311     -0.490962     -0.703859
  H       2.193291     -1.566466      0.081589
  H       1.821724      0.115451      1.851550
  H       2.401866      2.182575      0.563418
  H       3.327069      2.094921      2.081809
  H       4.113550      1.690559      0.534624
  H       4.777728     -0.658130      1.483583
  H       3.509709     -1.693363      2.187117
  H       4.011231     -0.204828      3.023324
42
Coordinates from ORCA-job opt E -1378.793298573080
  C      -4.382357     -0.346873      0.238239
  C      -3.141426     -0.668405     -0.596590
  N      -1.953725      0.137133     -0.332684
  C      -1.408155      0.015085      1.013610
  C      -0.995349     -1.399264      1.391789
  C      -2.092702      1.520646     -0.745425
  C      -0.783938      2.189655     -1.145882
  S      -0.064659      1.622278     -2.728725
  P       1.125498     -0.049360     -2.274774
  C       0.119044     -1.528626     -2.403277
  O       2.345413     -0.075407     -3.137675
  O       1.411744      0.168760     -0.698081
  C       2.478379     -0.524740     -0.041314
  C       2.781648      0.166218      1.279278
  C       3.202997      1.618917      1.067825
  C       3.841928     -0.628212      2.040791
  H      -5.220918     -0.989414     -0.070471
  H      -4.699610      0.700109      0.110483
  H      -4.211229     -0.520110      1.312076
  H      -3.379462     -0.553312     -1.667192
  H      -2.877906     -1.730472     -0.463455
  H      -0.515283      0.655726      1.064529
  H      -2.115645      0.413609      1.773994
  H      -0.289064     -1.809861      0.653963
  H      -0.495459     -1.393382      2.371964
  H      -1.853177     -2.085028      1.463284
  H      -2.546042      2.150324      0.051703
  H      -2.781732      1.563794     -1.603554
  H      -0.957467      3.262406     -1.316503
  H      -0.011346      2.102183     -0.371017
  H       0.714640     -2.394829     -2.079069
  H      -0.762571     -1.395821     -1.763439
  H      -0.178188     -1.661298     -3.452698
  H       3.367487     -0.524069     -0.695539
  H       2.177166     -1.572529      0.130175
  H       1.846851      0.153132      1.868516
  H       2.432047      2.183700      0.523579
  H       3.375805      2.121310      2.031741
  H       4.137432      1.671556      0.484226
  H       4.788194     -0.662931      1.475596
  H       3.519431     -1.664959      2.224635
  H       4.051705     -0.162506      3.015369
42
Coordinates from ORCA-job opt E -1378.793308596611
  C      -4.392210     -0.340961      0.227010
  C      -3.149718     -0.663089     -0.605389
  N      -1.959432      0.135525     -0.332624
  C      -1.418783      0.003691      1.014666
  C      -1.010967     -1.414029      1.385558
  C      -2.090673      1.522011     -0.737802
  C      -0.777709      2.187347     -1.130162
  S      -0.055062      1.623719     -2.712895
  P       1.125573     -0.055349     -2.261189
  C       0.114979     -1.530472     -2.404380
  O       2.350383     -0.081634     -3.117311
  O       1.404596      0.151635     -0.681783
  C       2.478949     -0.532797     -0.028010
  C       2.794283      0.172819      1.282054
  C       3.207871      1.624688      1.050540
  C       3.866023     -0.609992      2.039553
  H      -5.232532     -0.978315     -0.087535
  H      -4.704562      0.708035      0.103735
  H      -4.225111     -0.520401      1.300459
  H      -3.383493     -0.540333     -1.676080
  H      -2.891668     -1.727208     -0.477898
  H      -0.524330      0.641551      1.072013
  H      -2.127393      0.399822      1.775253
  H      -0.301946     -1.820948      0.648400
  H      -0.515790     -1.415643      2.368116
  H      -1.870869     -2.098064      1.448574
  H      -2.543360      2.149178      0.061729
  H      -2.777068      1.573658     -1.597575
  H      -0.945912      3.261597     -1.296533
  H      -0.008452      2.092993     -0.352789
  H       0.708046     -2.399371     -2.082640
  H      -0.769823     -1.400945     -1.768393
  H      -0.176864     -1.656049     -3.456174
  H       3.361753     -0.537465     -0.690549
  H       2.180647     -1.579009      0.157226
  H       1.866327      0.162482      1.882065
  H       2.428857      2.180672      0.508717
  H       3.389391      2.138090      2.007002
  H       4.135601      1.674536      0.456057
  H       4.805938     -0.647503      1.464072
  H       3.549291     -1.645807      2.238088
  H       4.085219     -0.133532      3.006826
42
Coordinates from ORCA-job opt E -1378.793316595997
  C      -4.400705     -0.327256      0.220889
  C      -3.160225     -0.654070     -0.612873
  N      -1.963631      0.132822     -0.334292
  C      -1.424429     -0.011741      1.012232
  C      -1.028197     -1.434834      1.375351
  C      -2.084166      1.523215     -0.729473
  C      -0.766185      2.181585     -1.115999
  S      -0.044342      1.620115     -2.699944
  P       1.126706     -0.066128     -2.250119
  C       0.110813     -1.536847     -2.406888
  O       2.356290     -0.092853     -3.099768
  O       1.398709      0.130906     -0.668332
  C       2.482940     -0.539794     -0.016724
  C       2.803279      0.179258      1.285037
  C       3.199246      1.633584      1.038449
  C       3.890699     -0.586944      2.037088
  H      -5.246129     -0.956219     -0.096703
  H      -4.704610      0.724858      0.103139
  H      -4.234737     -0.513684      1.293319
  H      -3.392168     -0.522272     -1.682912
  H      -2.911393     -1.721217     -0.492566
  H      -0.524770      0.618643      1.073211
  H      -2.129281      0.386029      1.775493
  H      -0.320143     -1.842090      0.637674
  H      -0.535612     -1.445412      2.359199
  H      -1.893600     -2.112345      1.433207
  H      -2.532038      2.147903      0.074785
  H      -2.770421      1.587182     -1.588545
  H      -0.927063      3.257803     -1.276626
  H       0.000200      2.077831     -0.337070
  H       0.699805     -2.407923     -2.083394
  H      -0.778338     -1.407932     -1.776876
  H      -0.172915     -1.658166     -3.461349
  H       3.361368     -0.544358     -0.684842
  H       2.192712     -1.586031      0.180098
  H       1.881469      0.164356      1.894534
  H       2.408946      2.176722      0.500082
  H       3.384960      2.156454      1.988957
  H       4.120605      1.689140      0.434613
  H       4.826022     -0.617080      1.453827
  H       3.587646     -1.625189      2.244154
  H       4.112683     -0.102890      2.999957
42
Coordinates from ORCA-job opt E -1378.793317913132
  C      -4.405852     -0.328302      0.214250
  C      -3.164344     -0.652865     -0.618798
  N      -1.967153      0.130967     -0.334165
  C      -1.430796     -0.020301      1.012768
  C      -1.036120     -1.445347      1.369782
  C      -2.084698      1.523263     -0.723271
  C      -0.764422      2.181384     -1.102500
  S      -0.037732      1.625638     -2.686252
  P       1.127456     -0.066061     -2.240655
  C       0.108192     -1.532989     -2.410827
  O       2.360905     -0.090636     -3.084824
  O       1.392562      0.120487     -0.656586
  C       2.478279     -0.546506     -0.003931
  C       2.810867      0.187854      1.286261
  C       3.214246      1.636194      1.017490
  C       3.898242     -0.574856      2.041870
  H      -5.251345     -0.955303     -0.107035
  H      -4.708699      0.724523      0.100165
  H      -4.241561     -0.519076      1.286183
  H      -3.394038     -0.515497     -1.688639
  H      -2.917266     -1.720941     -0.503328
  H      -0.530969      0.609304      1.078352
  H      -2.137004      0.374165      1.776534
  H      -0.326662     -1.849194      0.631563
  H      -0.545740     -1.460848      2.354693
  H      -1.902033     -2.122607      1.422621
  H      -2.534273      2.144810      0.082474
  H      -2.768265      1.592059     -1.584117
  H      -0.923433      3.258493     -1.259011
  H      -0.001179      2.073377     -0.321047
  H       0.693405     -2.407288     -2.089121
  H      -0.783239     -1.405055     -1.783881
  H      -0.171034     -1.647664     -3.467236
  H       3.352304     -0.563876     -0.677576
  H       2.184119     -1.588561      0.208255
  H       1.892588      0.187234      1.901352
  H       2.424353      2.176492      0.475653
  H       3.408288      2.171117      1.959605
  H       4.132756      1.677752      0.408191
  H       4.829982     -0.617599      1.453660
  H       3.590757     -1.608724      2.263855
  H       4.128555     -0.079886      2.997226
42
Coordinates from ORCA-job opt E -1378.793318871805
  C      -4.408912     -0.326248      0.210540
  C      -3.167134     -0.650488     -0.622160
  N      -1.968987      0.130573     -0.333847
  C      -1.434783     -0.025232      1.013382
  C      -1.041591     -1.451695      1.366243
  C      -2.083293      1.524090     -0.719546
  C      -0.760900      2.180564     -1.094553
  S      -0.031877      1.626860     -2.677855
  P       1.128125     -0.069461     -2.234903
  C       0.105230     -1.532768     -2.414110
  O       2.364070     -0.093634     -3.075441
  O       1.388835      0.109221     -0.649349
  C       2.478085     -0.551887      0.003078
  C       2.815150      0.190974      1.287299
  C       3.215522      1.638085      1.007532
  C       3.906662     -0.565625      2.043051
  H      -5.254975     -0.951427     -0.112817
  H      -4.710328      0.727228      0.098607
  H      -4.245623     -0.519663      1.282160
  H      -3.395357     -0.509599     -1.691870
  H      -2.921877     -1.719316     -0.509633
  H      -0.534744      0.603598      1.082188
  H      -2.142000      0.367115      1.777335
  H      -0.330552     -1.853196      0.628192
  H      -0.553618     -1.470692      2.352299
  H      -1.907957     -2.128707      1.414864
  H      -2.533165      2.144348      0.087026
  H      -2.765281      1.596328     -1.581361
  H      -0.917689      3.258327     -1.248823
  H       0.000216      2.069352     -0.311412
  H       0.686673     -2.409697     -2.092682
  H      -0.787807     -1.404051     -1.789649
  H      -0.170422     -1.643120     -3.471913
  H       3.349549     -0.572181     -0.673741
  H       2.186040     -1.592948      0.222799
  H       1.899476      0.193414      1.906156
  H       2.422575      2.173869      0.465564
  H       3.413116      2.179430      1.945244
  H       4.131440      1.677100      0.394131
  H       4.836397     -0.609341      1.451742
  H       3.602218     -1.599060      2.271221
  H       4.139490     -0.065307      2.995012
42
Coordinates from ORCA-job opt E -1378.793319615239
  C      -4.417167     -0.320965      0.200502
  C      -3.174471     -0.644683     -0.630901
  N      -1.973725      0.128863     -0.333034
  C      -1.444661     -0.039181      1.014745
  C      -1.054773     -1.469271      1.356194
  C      -2.079649      1.525562     -0.709464
  C      -0.751600      2.177911     -1.071877
  S      -0.015449      1.631277     -2.653901
  P       1.129669     -0.077931     -2.218568
  C       0.096840     -1.530615     -2.423497
  O       2.372630     -0.100825     -3.048714
  O       1.377718      0.078284     -0.629029
  C       2.476642     -0.566318      0.022942
  C       2.826092      0.200574      1.289767
  C       3.221002      1.642786      0.978526
  C       3.926890     -0.540255      2.047567
  H      -5.264702     -0.941028     -0.128848
  H      -4.714515      0.734276      0.094316
  H      -4.257203     -0.521529      1.271302
  H      -3.398678     -0.494660     -1.700235
  H      -2.934098     -1.715408     -0.525830
  H      -0.544121      0.587748      1.091826
  H      -2.154323      0.347303      1.779420
  H      -0.340710     -1.864366      0.617580
  H      -0.571706     -1.497821      2.344454
  H      -1.922161     -2.145681      1.394524
  H      -2.531327      2.142170      0.098898
  H      -2.756412      1.606702     -1.574604
  H      -0.902142      3.257497     -1.219523
  H       0.003440      2.057577     -0.284098
  H       0.667915     -2.415386     -2.104957
  H      -0.800041     -1.400473     -1.804866
  H      -0.170369     -1.627517     -3.484749
  H       3.340860     -0.595471     -0.662670
  H       2.190294     -1.604191      0.263768
  H       1.917004      0.213713      1.918065
  H       2.421388      2.167142      0.435063
  H       3.428342      2.202373      1.903365
  H       4.130323      1.672009      0.354749
  H       4.851223     -0.589912      1.448265
  H       3.628446     -1.571136      2.294440
  H       4.167285     -0.024013      2.989087
42
Coordinates from ORCA-job opt E -1378.793311860185
  C      -4.420138     -0.320227      0.197268
  C      -3.176682     -0.644236     -0.632880
  N      -1.975582      0.127838     -0.332676
  C      -1.448098     -0.043078      1.015377
  C      -1.058150     -1.473862      1.353614
  C      -2.079911      1.525227     -0.706989
  C      -0.750515      2.177315     -1.064848
  S      -0.010807      1.633946     -2.646172
  P       1.130139     -0.078824     -2.213234
  C       0.095028     -1.528514     -2.426705
  O       2.375396     -0.100495     -3.039940
  O       1.373944      0.069783     -0.622432
  C       2.475834     -0.570069      0.029146
  C       2.829968      0.204164      1.290179
  C       3.226787      1.643599      0.968669
  C       3.931345     -0.533868      2.049850
  H      -5.267722     -0.939296     -0.133825
  H      -4.716544      0.735339      0.091700
  H      -4.261794     -0.521898      1.268094
  H      -3.399466     -0.492860     -1.702326
  H      -2.937302     -1.715263     -0.528536
  H      -0.547819      0.583830      1.094993
  H      -2.158858      0.341346      1.780043
  H      -0.343898     -1.866841      0.614070
  H      -0.575310     -1.504840      2.341911
  H      -1.925454     -2.150510      1.389906
  H      -2.533424      2.140720      0.101204
  H      -2.754308      1.607964     -1.573823
  H      -0.899773      3.257340     -1.210552
  H       0.002425      2.054861     -0.275405
  H       0.663561     -2.415846     -2.110778
  H      -0.802706     -1.399243     -1.809036
  H      -0.170736     -1.620183     -3.488777
  H       3.337424     -0.602913     -0.659560
  H       2.190521     -1.606602      0.276664
  H       1.922472      0.222867      1.920674
  H       2.427051      2.166035      0.423545
  H       3.437353      2.208928      1.889280
  H       4.134766      1.667093      0.342690
  H       4.854072     -0.588655      1.448512
  H       3.631781     -1.562734      2.303610
  H       4.175130     -0.012206      2.987494
42
Coordinates from ORCA-job opt E -1378.793325783392
  C      -4.427796     -0.316939      0.188649
  C      -3.182051     -0.643521     -0.637199
  N      -1.979511      0.123937     -0.331139
  C      -1.456493     -0.054234      1.017816
  C      -1.067743     -1.486911      1.349081
  C      -2.079466      1.523082     -0.700065
  C      -0.746805      2.174949     -1.045363
  S       0.002718      1.642182     -2.625388
  P       1.132025     -0.080203     -2.199501
  C       0.091647     -1.522005     -2.437359
  O       2.383923     -0.097885     -3.016194
  O       1.363332      0.047437     -0.605278
  C       2.473092     -0.580034      0.045224
  C       2.839030      0.213749      1.290480
  C       3.240284      1.645476      0.941490
  C       3.942072     -0.516303      2.055477
  H      -5.275885     -0.932800     -0.147070
  H      -4.720587      0.739686      0.083665
  H      -4.274714     -0.520765      1.259820
  H      -3.400601     -0.489560     -1.707176
  H      -2.946326     -1.715378     -0.533414
  H      -0.556207      0.571699      1.103836
  H      -2.169614      0.326412      1.782111
  H      -0.354363     -1.875926      0.606732
  H      -0.584199     -1.523708      2.336835
  H      -1.935593     -2.163058      1.381947
  H      -2.538249      2.135729      0.107371
  H      -2.747238      1.609952     -1.571629
  H      -0.892753      3.256203     -1.185149
  H       0.000814      2.046494     -0.251860
  H       0.654280     -2.415978     -2.129771
  H      -0.808834     -1.396744     -1.822675
  H      -0.170074     -1.598701     -3.501611
  H       3.327655     -0.623073     -0.651506
  H       2.190226     -1.612725      0.310441
  H       1.935629      0.246661      1.926446
  H       2.440521      2.162084      0.390855
  H       3.457997      2.226482      1.850610
  H       4.145208      1.653740      0.310730
  H       4.860185     -0.586382      1.448654
  H       3.638979     -1.538902      2.329374
  H       4.195486      0.020911      2.981705
42
Coordinates from ORCA-job opt E -1378.793326291337
  C      -4.432943     -0.315178      0.180800
  C      -3.184644     -0.643535     -0.640608
  N      -1.981693      0.121222     -0.329504
  C      -1.463104     -0.061133      1.020600
  C      -1.074784     -1.494738      1.348331
  C      -2.078922      1.521428     -0.694996
  C      -0.744246      2.173553     -1.031350
  S       0.012308      1.648779     -2.610762
  P       1.133145     -0.080475     -2.190298
  C       0.089350     -1.517041     -2.443935
  O       2.389163     -0.096219     -3.000751
  O       1.356656      0.033502     -0.594026
  C       2.471212     -0.586892      0.055502
  C       2.845430      0.219563      1.290074
  C       3.248666      1.646121      0.922936
  C       3.950337     -0.504928      2.057733
  H      -5.280855     -0.929274     -0.158539
  H      -4.723419      0.742031      0.075284
  H      -4.284460     -0.519778      1.252463
  H      -3.399209     -0.488341     -1.711231
  H      -2.951421     -1.715881     -0.536554
  H      -0.563253      0.564639      1.111645
  H      -2.178678      0.317112      1.783776
  H      -0.361119     -1.881203      0.604970
  H      -0.591445     -1.534466      2.336075
  H      -1.942702     -2.170912      1.378823
  H      -2.541606      2.132120      0.111712
  H      -2.742063      1.610986     -1.569831
  H      -0.888271      3.255627     -1.166704
  H      -0.000145      2.040826     -0.235243
  H       0.649162     -2.414940     -2.142732
  H      -0.812740     -1.395465     -1.830860
  H      -0.170063     -1.583727     -3.509428
  H       3.320937     -0.637635     -0.646496
  H       2.189017     -1.616552      0.332569
  H       1.945182      0.261347      1.930060
  H       2.448462      2.158207      0.368671
  H       3.470667      2.237508      1.824285
  H       4.151456      1.644769      0.289092
  H       4.864715     -0.586004      1.446667
  H       3.644871     -1.522809      2.346094
  H       4.211048      0.042916      2.975686
42
Coordinates from ORCA-job opt E -1378.793329818827
  C      -4.437303     -0.313690      0.172574
  C      -3.186631     -0.642704     -0.645053
  N      -1.983168      0.118633     -0.327633
  C      -1.469486     -0.069725      1.023460
  C      -1.083372     -1.505039      1.346392
  C      -2.077196      1.520414     -0.687929
  C      -0.740312      2.172548     -1.014873
  S       0.022975      1.656228     -2.594013
  P       1.134116     -0.080857     -2.179997
  C       0.086974     -1.511800     -2.451402
  O       2.394866     -0.094808     -2.983263
  O       1.348563      0.018199     -0.581546
  C       2.467354     -0.594960      0.067964
  C       2.851476      0.226920      1.289347
  C       3.257128      1.646865      0.900036
  C       3.958369     -0.490795      2.060553
  H      -5.285094     -0.925708     -0.170760
  H      -4.725573      0.744199      0.067807
  H      -4.292946     -0.520288      1.244413
  H      -3.397178     -0.484532     -1.716055
  H      -2.956186     -1.715794     -0.542626
  H      -0.569488      0.554894      1.120322
  H      -2.187253      0.306112      1.785765
  H      -0.368920     -1.888915      0.602469
  H      -0.601404     -1.549051      2.334633
  H      -1.952087     -2.180355      1.373043
  H      -2.543216      2.128345      0.118951
  H      -2.736071      1.614180     -1.565552
  H      -0.882245      3.255548     -1.144931
  H       0.000205      2.034631     -0.216278
  H       0.644133     -2.413400     -2.156364
  H      -0.817404     -1.394587     -1.840925
  H      -0.168491     -1.568126     -3.518448
  H       3.311836     -0.656588     -0.639341
  H       2.184489     -1.620197      0.359930
  H       1.955005      0.280145      1.933762
  H       2.456304      2.152967      0.341092
  H       3.484013      2.250884      1.791733
  H       4.157476      1.633805      0.262875
  H       4.868403     -0.585364      1.445010
  H       3.649974     -1.502689      2.366339
  H       4.227362      0.069589      2.968521
42
Coordinates from ORCA-job opt E -1378.793334086870
  C      -4.441905     -0.313205      0.164742
  C      -3.189131     -0.641945     -0.649817
  N      -1.985189      0.115852     -0.325748
  C      -1.476319     -0.079248      1.026202
  C      -1.092783     -1.516490      1.343574
  C      -2.075978      1.519341     -0.680190
  C      -0.736805      2.171689     -0.997048
  S       0.033797      1.664292     -2.575535
  P       1.135730     -0.080572     -2.169037
  C       0.085189     -1.505247     -2.459560
  O       2.401385     -0.091920     -2.964696
  O       1.340548      0.002323     -0.568548
  C       2.462853     -0.603354      0.081976
  C       2.858019      0.235739      1.288092
  C       3.269021      1.646995      0.873573
  C       3.965118     -0.475555      2.064909
  H      -5.289516     -0.923063     -0.182841
  H      -4.728320      0.745368      0.061794
  H      -4.301219     -0.522741      1.236497
  H      -3.395912     -0.479797     -1.720978
  H      -2.961121     -1.715809     -0.550161
  H      -0.576055      0.543935      1.129050
  H      -2.196252      0.293842      1.787828
  H      -0.377931     -1.897833      0.598747
  H      -0.612041     -1.565354      2.332197
  H      -1.962509     -2.190649      1.366327
  H      -2.545684      2.124030      0.127006
  H      -2.730254      1.617593     -1.560766
  H      -0.876931      3.255576     -1.121573
  H      -0.000337      2.028580     -0.195600
  H       0.638572     -2.411002     -2.170148
  H      -0.821738     -1.391511     -1.852251
  H      -0.165443     -1.550834     -3.528257
  H       3.301986     -0.678280     -0.630301
  H       2.178386     -1.623052      0.390919
  H       1.965166      0.303997      1.936115
  H       2.468665      2.147451      0.308812
  H       3.502038      2.264994      1.754040
  H       4.166979      1.618953      0.233522
  H       4.871145     -0.585612      1.446064
  H       3.652386     -1.480400      2.388989
  H       4.242391      0.098057      2.962083
42
Coordinates from ORCA-job opt E -1378.793343137109
  C      -4.445568     -0.314889      0.156765
  C      -3.190180     -0.642523     -0.654257
  N      -1.986515      0.112883     -0.323532
  C      -1.482786     -0.088068      1.029487
  C      -1.102148     -1.527048      1.342447
  C      -2.075353      1.517886     -0.672543
  C      -0.734601      2.171655     -0.979484
  S       0.043651      1.674017     -2.557329
  P       1.137240     -0.077913     -2.158495
  C       0.084313     -1.496814     -2.467937
  O       2.407797     -0.086133     -2.946440
  O       1.332248     -0.010774     -0.556186
  C       2.456622     -0.610928      0.095962
  C       2.864172      0.244968      1.286055
  C       3.283963      1.645783      0.845654
  C       3.969298     -0.461853      2.069724
  H      -5.292352     -0.923348     -0.195245
  H      -4.730979      0.744100      0.055340
  H      -4.308775     -0.527037      1.228507
  H      -3.393085     -0.477007     -1.725662
  H      -2.963661     -1.716904     -0.556880
  H      -0.582197      0.533581      1.138155
  H      -2.205007      0.282938      1.789965
  H      -0.387378     -1.906841      0.596773
  H      -0.622176     -1.580033      2.331240
  H      -1.973091     -2.199731      1.362274
  H      -2.549416      2.119133      0.134696
  H      -2.724993      1.619743     -1.556141
  H      -0.873981      3.256251     -1.098568
  H      -0.001863      2.024149     -0.175389
  H       0.634500     -2.406368     -2.184391
  H      -0.825223     -1.387144     -1.863820
  H      -0.161592     -1.531835     -3.538120
  H       3.290299     -0.701621     -0.620811
  H       2.168280     -1.623948      0.422381
  H       1.974783      0.330838      1.936776
  H       2.485534      2.141947      0.274288
  H       3.523969      2.277610      1.714352
  H       4.179703      1.600091      0.203536
  H       4.871224     -0.590510      1.448510
  H       3.649479     -1.458082      2.412914
  H       4.255842      0.124907      2.955431
42
Coordinates from ORCA-job opt E -1378.793360485947
  C      -4.448470     -0.317997      0.149212
  C      -3.190523     -0.643430     -0.658761
  N      -1.987483      0.110067     -0.321332
  C      -1.488578     -0.096669      1.032601
  C      -1.110481     -1.537258      1.341198
  C      -2.074972      1.516576     -0.664628
  C      -0.732957      2.172237     -0.961819
  S       0.053094      1.684533     -2.538878
  P       1.138831     -0.074113     -2.147759
  C       0.084127     -1.487269     -2.476704
  O       2.414555     -0.078776     -2.927408
  O       1.323280     -0.022667     -0.543790
  C       2.448380     -0.618541      0.111060
  C       2.869563      0.254552      1.283776
  C       3.300026      1.643187      0.815877
  C       3.971620     -0.448355      2.075223
  H      -5.294196     -0.925243     -0.207394
  H      -4.733429      0.741327      0.050065
  H      -4.315190     -0.533373      1.220750
  H      -3.389901     -0.474098     -1.730247
  H      -2.964859     -1.718243     -0.564310
  H      -0.587772      0.523576      1.146829
  H      -2.212972      0.272162      1.792077
  H      -0.396059     -1.915620      0.594502
  H      -0.630854     -1.594064      2.329963
  H      -1.982518     -2.208595      1.358619
  H      -2.553411      2.114070      0.142834
  H      -2.720192      1.621982     -1.551047
  H      -0.872073      3.257446     -1.075567
  H      -0.003843      2.020707     -0.155151
  H       0.630937     -2.400524     -2.198590
  H      -0.828388     -1.381522     -1.876426
  H      -0.156266     -1.511833     -3.548420
  H       3.276546     -0.727423     -0.609525
  H       2.154420     -1.623633      0.456046
  H       1.983883      0.360211      1.936691
  H       2.503980      2.135488      0.237739
  H       3.548421      2.289204      1.671687
  H       4.193012      1.577640      0.171674
  H       4.869169     -0.597650      1.452319
  H       3.643360     -1.434703      2.438406
  H       4.268182      0.151769      2.948609
42
Coordinates from ORCA-job opt E -1378.793389751633
  C      -4.450584     -0.322878      0.142151
  C      -3.190148     -0.644666     -0.663428
  N      -1.988205      0.107588     -0.319285
  C      -1.493565     -0.105131      1.035257
  C      -1.116766     -1.547129      1.338746
  C      -2.075159      1.515641     -0.656391
  C      -0.732264      2.173771     -0.944009
  S       0.061826      1.696085     -2.520090
  P       1.140270     -0.068820     -2.136369
  C       0.084644     -1.476475     -2.485290
  O       2.421526     -0.069542     -2.906963
  O       1.313147     -0.032724     -0.530884
  C       2.437258     -0.626096      0.127936
  C       2.874126      0.264750      1.281368
  C       3.318049      1.638701      0.783584
  C       3.971617     -0.435095      2.081802
  H      -5.294956     -0.929185     -0.219220
  H      -4.735833      0.736658      0.046208
  H      -4.320300     -0.542226      1.213251
  H      -3.386518     -0.470994     -1.734784
  H      -2.964491     -1.719792     -0.572659
  H      -0.592971      0.514251      1.154971
  H      -2.220114      0.260680      1.794136
  H      -0.403071     -1.923417      0.590347
  H      -0.636551     -1.607611      2.327031
  H      -1.989407     -2.217733      1.354360
  H      -2.557984      2.108961      0.151553
  H      -2.716244      1.624593     -1.545383
  H      -0.871637      3.259482     -1.052613
  H      -0.006657      2.018686     -0.134829
  H       0.628258     -2.393226     -2.212503
  H      -0.831106     -1.374901     -1.889272
  H      -0.149737     -1.490590     -3.558514
  H       3.259629     -0.756570     -0.595676
  H       2.135133     -1.621468      0.493064
  H       1.992612      0.393281      1.935905
  H       2.525206      2.127713      0.198128
  H       3.576683      2.299551      1.624913
  H       4.207603      1.549998      0.137449
  H       4.864207     -0.608166      1.457957
  H       3.632891     -1.409678      2.466512
  H       4.279582      0.178857      2.941534
42
Coordinates from ORCA-job opt E -1378.793428363884
  C      -4.452818     -0.328959      0.135717
  C      -3.190233     -0.646047     -0.668371
  N      -1.989586      0.105334     -0.317853
  C      -1.498295     -0.113637      1.036859
  C      -1.121947     -1.556956      1.334446
  C      -2.076560      1.514964     -0.648310
  C      -0.733049      2.175957     -0.926453
  S       0.069409      1.708034     -2.501228
  P       1.141753     -0.062233     -2.124307
  C       0.086147     -1.465021     -2.492448
  O       2.428504     -0.058747     -2.885752
  O       1.302963     -0.040402     -0.517567
  C       2.424745     -0.632810      0.146041
  C       2.878952      0.275555      1.278867
  C       3.338788      1.632602      0.750031
  C       3.970473     -0.422194      2.089202
  H      -5.295782     -0.934426     -0.230312
  H      -4.738865      0.730719      0.043846
  H      -4.324787     -0.552942      1.206128
  H      -3.384298     -0.467566     -1.739365
  H      -2.963983     -1.721413     -0.582003
  H      -0.598072      0.505126      1.161627
  H      -2.226611      0.248579      1.795777
  H      -0.409995     -1.930886      0.583254
  H      -0.639612     -1.620980      2.321505
  H      -1.994964     -2.227093      1.349523
  H      -2.563686      2.103728      0.160395
  H      -2.713779      1.627597     -1.539628
  H      -0.873154      3.262057     -1.030210
  H      -0.011008      2.017818     -0.114672
  H       0.627134     -2.384828     -2.224819
  H      -0.832720     -1.367861     -1.900540
  H      -0.142389     -1.469202     -3.567009
  H       3.241033     -0.787299     -0.579718
  H       2.112541     -1.616913      0.532217
  H       2.002024      0.429358      1.934231
  H       2.550029      2.119094      0.156848
  H       3.609221      2.308228      1.575769
  H       4.224312      1.518131      0.102457
  H       4.857665     -0.621125      1.465387
  H       3.619749     -1.383523      2.495908
  H       4.290750      0.205312      2.934529
42
Coordinates from ORCA-job opt E -1378.793469301486
  C      -4.455044     -0.332091      0.129658
  C      -3.190995     -0.645018     -0.673732
  N      -1.990673      0.103649     -0.316434
  C      -1.502725     -0.123442      1.038111
  C      -1.129124     -1.568940      1.328297
  C      -2.075695      1.515166     -0.639314
  C      -0.730819      2.176977     -0.909099
  S       0.077821      1.716692     -2.482902
  P       1.143214     -0.059303     -2.112303
  C       0.086715     -1.456588     -2.498403
  O       2.435102     -0.053085     -2.865076
  O       1.293682     -0.050948     -0.504630
  C       2.414842     -0.639417      0.163370
  C       2.883235      0.285992      1.276450
  C       3.353230      1.628050      0.718971
  C       3.971840     -0.406395      2.095215
  H      -5.297470     -0.935197     -0.241477
  H      -4.740630      0.728174      0.043319
  H      -4.329122     -0.562228      1.199016
  H      -3.382860     -0.460270     -1.744071
  H      -2.965324     -1.720973     -0.593123
  H      -0.601848      0.493140      1.168223
  H      -2.232144      0.235549      1.797521
  H      -0.419181     -1.940728      0.574167
  H      -0.645214     -1.638336      2.314238
  H      -2.003560     -2.237284      1.341675
  H      -2.565334      2.099698      0.170960
  H      -2.709759      1.633029     -1.532204
  H      -0.870248      3.263605     -1.008173
  H      -0.011983      2.014924     -0.095231
  H       0.624728     -2.379505     -2.235536
  H      -0.835028     -1.363088     -1.910395
  H      -0.136191     -1.451353     -3.574134
  H       3.225710     -0.814134     -0.563861
  H       2.095975     -1.613321      0.569070
  H       2.010826      0.460805      1.932660
  H       2.566048      2.110212      0.120024
  H       3.634153      2.317379      1.529741
  H       4.234090      1.492203      0.069203
  H       4.854222     -0.625967      1.471489
  H       3.613666     -1.356387      2.521633
  H       4.301872      0.233887      2.927088
42
Coordinates from ORCA-job opt E -1378.793534283284
  C      -4.459851     -0.330328      0.119374
  C      -3.193769     -0.640396     -0.681895
  N      -1.992370      0.101097     -0.313543
  C      -1.510919     -0.139689      1.040964
  C      -1.142976     -1.588976      1.319123
  C      -2.070982      1.515569     -0.624910
  C      -0.722571      2.175199     -0.882353
  S       0.093319      1.724672     -2.455109
  P       1.145892     -0.061423     -2.094874
  C       0.085423     -1.448292     -2.506523
  O       2.444428     -0.053421     -2.836238
  O       1.282515     -0.073930     -0.486312
  C       2.407178     -0.650023      0.186387
  C       2.889663      0.299967      1.272526
  C       3.363899      1.624354      0.677587
  C       3.979722     -0.378575      2.100846
  H      -5.302737     -0.927638     -0.260008
  H      -4.741892      0.731508      0.040994
  H      -4.338600     -0.569850      1.187213
  H      -3.381002     -0.445778     -1.751322
  H      -2.971786     -1.717741     -0.609716
  H      -0.608673      0.472669      1.180475
  H      -2.242496      0.214525      1.800562
  H      -0.433835     -1.956510      0.562166
  H      -0.659891     -1.668364      2.304720
  H      -2.019890     -2.254195      1.326144
  H      -2.562842      2.094901      0.187781
  H      -2.700113      1.642887     -1.519990
  H      -0.858246      3.262965     -0.973898
  H      -0.008736      2.005051     -0.065722
  H       0.617871     -2.376578     -2.251323
  H      -0.839883     -1.358765     -1.923534
  H      -0.130140     -1.428541     -3.583575
  H       3.211287     -0.846312     -0.542757
  H       2.086023     -1.611938      0.617621
  H       2.023055      0.497024      1.930197
  H       2.575193      2.096286      0.072385
  H       3.655618      2.332531      1.468037
  H       4.238555      1.466018      0.024524
  H       4.856427     -0.619098      1.476804
  H       3.618669     -1.315604      2.552762
  H       4.319467      0.279874      2.914411
42
Coordinates from ORCA-job opt E -1378.793647900536
  C      -4.467920     -0.322043      0.102852
  C      -3.198871     -0.630836     -0.694175
  N      -1.994568      0.096910     -0.308394
  C      -1.524192     -0.165911      1.045915
  C      -1.165209     -1.620993      1.304855
  C      -2.060493      1.515822     -0.601879
  C      -0.705495      2.169040     -0.840918
  S       0.119508      1.732275     -2.412637
  P       1.150105     -0.070568     -2.069744
  C       0.080519     -1.438999     -2.517337
  O       2.457019     -0.062803     -2.796431
  O       1.268935     -0.114699     -0.460758
  C       2.402430     -0.665851      0.217821
  C       2.898422      0.320084      1.265460
  C       3.370948      1.620994      0.619513
  C       3.994234     -0.332592      2.106859
  H      -5.312529     -0.908343     -0.289653
  H      -4.741987      0.742700      0.036353
  H      -4.355306     -0.576002      1.168296
  H      -3.377803     -0.420955     -1.762166
  H      -2.984975     -1.710608     -0.634598
  H      -0.619992      0.439636      1.200870
  H      -2.259574      0.180708      1.805349
  H      -0.455087     -1.980695      0.545093
  H      -0.686113     -1.716872      2.290929
  H      -2.045694     -2.281533      1.299087
  H      -2.554267      2.088164      0.214624
  H      -2.682016      1.659035     -1.499866
  H      -0.833050      3.258756     -0.920171
  H       0.000622      1.984392     -0.020712
  H       0.603154     -2.376090     -2.274309
  H      -0.849089     -1.353134     -1.940762
  H      -0.125404     -1.397271     -3.595632
  H       3.198317     -0.887132     -0.513000
  H       2.084588     -1.612149      0.684011
  H       2.038622      0.543224      1.923809
  H       2.577885      2.074385      0.005752
  H       3.673282      2.355853      1.381075
  H       4.238181      1.436461     -0.036596
  H       4.864563     -0.597030      1.483520
  H       3.634844     -1.252614      2.593661
  H       4.343458      0.352417      2.894031
42
Coordinates from ORCA-job opt E -1378.793850939213
  C      -4.479247     -0.301978      0.078127
  C      -3.206387     -0.612394     -0.712129
  N      -1.996083      0.090033     -0.299285
  C      -1.543640     -0.208876      1.053673
  C      -1.197588     -1.672482      1.280362
  C      -2.038650      1.515411     -0.564142
  C      -0.672188      2.154474     -0.775281
  S       0.164072      1.738127     -2.346375
  P       1.156986     -0.092137     -2.033516
  C       0.069407     -1.428038     -2.532033
  O       2.474269     -0.088938     -2.741532
  O       1.252661     -0.184328     -0.425646
  C       2.401686     -0.689661      0.262168
  C       2.907019      0.350254      1.252205
  C       3.368818      1.616972      0.534402
  C       4.013994     -0.255683      2.113733
  H      -5.327875     -0.867850     -0.335149
  H      -4.737651      0.767713      0.030818
  H      -4.381460     -0.579147      1.139234
  H      -3.371422     -0.378204     -1.777341
  H      -3.008034     -1.696077     -0.672554
  H      -0.637053      0.385881      1.233776
  H      -2.285419      0.124604      1.812759
  H      -0.483498     -2.017427      0.517547
  H      -0.727261     -1.795689      2.267609
  H      -2.082706     -2.326232      1.251352
  H      -2.533423      2.077913      0.258601
  H      -2.648196      1.685319     -1.465683
  H      -0.784119      3.247216     -0.833758
  H       0.021845      1.944152      0.049118
  H       0.575123     -2.379306     -2.309129
  H      -0.865016     -1.344612     -1.963105
  H      -0.123967     -1.352434     -3.610776
  H       3.188893     -0.941837     -0.467728
  H       2.095260     -1.613345      0.777901
  H       2.053901      0.605464      1.907638
  H       2.567952      2.037536     -0.092629
  H       3.679158      2.390827      1.252882
  H       4.228317      1.400383     -0.122106
  H       4.878265     -0.549204      1.494934
  H       3.662935     -1.150805      2.650406
  H       4.370323      0.469533      2.860652
42
Coordinates from ORCA-job opt E -1378.794128456085
  C      -4.485370     -0.265825      0.052859
  C      -3.210896     -0.581193     -0.732744
  N      -1.989888      0.080354     -0.285604
  C      -1.558767     -0.272213      1.061416
  C      -1.230154     -1.746697      1.238530
  C      -1.997543      1.513748     -0.505699
  C      -0.614337      2.127027     -0.681559
  S       0.232144      1.738544     -2.253940
  P       1.166974     -0.131324     -1.989722
  C       0.049468     -1.413580     -2.556514
  O       2.495882     -0.139501     -2.676065
  O       1.232609     -0.294865     -0.386888
  C       2.400381     -0.723520      0.320636
  C       2.900484      0.392539      1.228284
  C       3.346360      1.607153      0.416251
  C       4.018042     -0.136680      2.125995
  H      -5.341988     -0.798291     -0.387438
  H      -4.718475      0.810600      0.036093
  H      -4.406522     -0.577784      1.105840
  H      -3.358634     -0.310864     -1.791967
  H      -3.037345     -1.669835     -0.724323
  H      -0.648477      0.305694      1.274387
  H      -2.306924      0.041776      1.822511
  H      -0.510879     -2.068976      0.470806
  H      -0.771580     -1.910090      2.225487
  H      -2.121350     -2.389886      1.176959
  H      -2.489055      2.061559      0.328840
  H      -2.592624      1.725395     -1.408103
  H      -0.700551      3.223326     -0.708069
  H       0.063314      1.876535      0.145399
  H       0.529005     -2.385326     -2.366606
  H      -0.889137     -1.331201     -1.994605
  H      -0.129165     -1.287731     -3.633039
  H       3.184374     -1.015421     -0.397328
  H       2.112094     -1.611899      0.903546
  H       2.047812      0.687584      1.867488
  H       2.539087      1.974924     -0.235337
  H       3.654551      2.434439      1.073486
  H       4.203832      1.350941     -0.228501
  H       4.883047     -0.464074      1.525424
  H       3.680239     -0.994851      2.727552
  H       4.369961      0.644623      2.816266
42
Coordinates from ORCA-job opt E -1378.792975276142
  C      -4.453737     -0.139133      0.008247
  C      -3.186671     -0.464248     -0.784055
  N      -1.936879      0.078202     -0.263433
  C      -1.551359     -0.402088      1.057831
  C      -1.275213     -1.896731      1.125930
  C      -1.839089      1.519256     -0.371971
  C      -0.411583      2.023634     -0.540895
  S       0.374006      1.637958     -2.144788
  P       1.164616     -0.311875     -1.959691
  C      -0.066050     -1.476439     -2.543145
  O       2.474766     -0.403971     -2.676544
  O       1.246364     -0.554277     -0.368453
  C       2.451944     -0.769132      0.368406
  C       2.824568      0.458995      1.195443
  C       3.137062      1.666952      0.311946
  C       3.993600      0.121130      2.119941
  H      -5.335572     -0.556249     -0.501358
  H      -4.607526      0.947769      0.100792
  H      -4.423636     -0.564575      1.023370
  H      -3.295083     -0.093823     -1.817352
  H      -3.081170     -1.558355     -0.871350
  H      -0.625736      0.123604      1.336235
  H      -2.305023     -0.123511      1.827227
  H      -0.537945     -2.181526      0.360731
  H      -0.854839     -2.144953      2.112351
  H      -2.182659     -2.505015      0.991990
  H      -2.263919      2.037502      0.516019
  H      -2.434197      1.852217     -1.237032
  H      -0.404857      3.123036     -0.506950
  H       0.248419      1.668580      0.262308
  H       0.345947     -2.486397     -2.400864
  H      -0.983594     -1.349887     -1.957291
  H      -0.250334     -1.292749     -3.610092
  H       3.272745     -1.030192     -0.318988
  H       2.255323     -1.631852      1.022566
  H       1.942435      0.702001      1.816936
  H       2.287448      1.933536     -0.334235
  H       3.382783      2.548594      0.922947
  H       3.998837      1.460705     -0.344225
  H       4.895456     -0.129160      1.536418
  H       3.765603     -0.738248      2.769682
  H       4.244747      0.975846      2.765397
42
Coordinates from ORCA-job opt E -1378.794464875204
  C      -4.504939     -0.223719      0.015177
  C      -3.227773     -0.545229     -0.763387
  N      -1.996089      0.064754     -0.274650
  C      -1.595950     -0.343297      1.066246
  C      -1.292674     -1.828043      1.203452
  C      -1.960761      1.503982     -0.442287
  C      -0.558864      2.079542     -0.597047
  S       0.282495      1.715869     -2.178627
  P       1.172118     -0.186267     -1.966189
  C       0.008162     -1.417122     -2.551463
  O       2.491785     -0.214029     -2.670310
  O       1.250370     -0.411861     -0.371573
  C       2.446091     -0.731989      0.347802
  C       2.917976      0.443856      1.196661
  C       3.357444      1.627329      0.335396
  C       4.036671     -0.015663      2.130868
  H      -5.371097     -0.702737     -0.466114
  H      -4.700034      0.860034      0.047060
  H      -4.457063     -0.589780      1.052578
  H      -3.351379     -0.232689     -1.814109
  H      -3.084929     -1.638066     -0.793298
  H      -0.680445      0.212809      1.316051
  H      -2.352034     -0.042062      1.824752
  H      -0.566876     -2.138860      0.437683
  H      -0.847956     -2.022193      2.191435
  H      -2.192074     -2.456666      1.116152
  H      -2.433560      2.034653      0.413700
  H      -2.549902      1.770824     -1.334032
  H      -0.613550      3.178260     -0.587901
  H       0.105674      1.781636      0.225573
  H       0.465075     -2.406688     -2.402142
  H      -0.918682     -1.328587     -1.972531
  H      -0.181163     -1.249423     -3.620357
  H       3.235918     -1.041211     -0.356318
  H       2.192532     -1.592088      0.986046
  H       2.052710      0.755740      1.810785
  H       2.553450      1.968266     -0.332837
  H       3.658853      2.480932      0.961485
  H       4.217986      1.351674     -0.296944
  H       4.916667     -0.349248      1.555935
  H       3.714492     -0.852818      2.769704
  H       4.361327      0.805306      2.787576
42
Coordinates from ORCA-job opt E -1378.794571727117
  C      -4.506041     -0.207548      0.029926
  C      -3.235796     -0.536221     -0.757123
  N      -1.996362      0.061865     -0.272788
  C      -1.596169     -0.357538      1.064429
  C      -1.329287     -1.850187      1.189583
  C      -1.951572      1.502625     -0.437920
  C      -0.549133      2.076046     -0.597846
  S       0.279408      1.707366     -2.183706
  P       1.181290     -0.186789     -1.958168
  C       0.033940     -1.429253     -2.550378
  O       2.507027     -0.205437     -2.650879
  O       1.251123     -0.413788     -0.363294
  C       2.450459     -0.728126      0.351614
  C       2.917331      0.450945      1.196226
  C       3.344089      1.635051      0.330291
  C       4.044112     -0.001209      2.124086
  H      -5.377961     -0.681835     -0.445517
  H      -4.694624      0.877160      0.064105
  H      -4.453251     -0.574720      1.066561
  H      -3.362848     -0.218508     -1.805690
  H      -3.102373     -1.630212     -0.792597
  H      -0.667060      0.176079      1.311540
  H      -2.341844     -0.043133      1.827602
  H      -0.600933     -2.169556      0.429456
  H      -0.904805     -2.069516      2.180830
  H      -2.242437     -2.454854      1.078774
  H      -2.420441      2.034629      0.419297
  H      -2.541482      1.771920     -1.328248
  H      -0.602178      3.174769     -0.589229
  H       0.120493      1.779193      0.220716
  H       0.499674     -2.414514     -2.400500
  H      -0.899244     -1.351445     -1.978805
  H      -0.151135     -1.262476     -3.620264
  H       3.237701     -1.030627     -0.358654
  H       2.206426     -1.590812      0.990046
  H       2.054438      0.758140      1.815145
  H       2.534910      1.966377     -0.337494
  H       3.638572      2.493328      0.953283
  H       4.205727      1.364310     -0.302614
  H       4.920657     -0.335113      1.544178
  H       3.729069     -0.835626      2.769958
  H       4.370530      0.824376      2.774064
42
Coordinates from ORCA-job opt E -1378.794476953326
  C      -4.509338     -0.199456      0.015654
  C      -3.240055     -0.520008     -0.775917
  N      -1.999601      0.071182     -0.284986
  C      -1.600337     -0.348527      1.052517
  C      -1.369729     -1.845838      1.190625
  C      -1.943802      1.511359     -0.446818
  C      -0.536253      2.062164     -0.632826
  S       0.252473      1.665477     -2.231585
  P       1.171586     -0.215912     -1.969152
  C       0.017839     -1.482406     -2.494387
  O       2.482560     -0.250001     -2.688371
  O       1.274836     -0.395220     -0.368871
  C       2.490096     -0.706158      0.318237
  C       2.933689      0.442108      1.215055
  C       3.301543      1.689874      0.413400
  C       4.096373     -0.020194      2.092517
  H      -5.382758     -0.661746     -0.468678
  H      -4.692820      0.885223      0.069461
  H      -4.458802     -0.586276      1.045161
  H      -3.365558     -0.189706     -1.820445
  H      -3.109135     -1.613710     -0.826172
  H      -0.657156      0.165475      1.290147
  H      -2.334172     -0.011022      1.817317
  H      -0.633727     -2.190593      0.448934
  H      -0.972653     -2.068904      2.192175
  H      -2.293954     -2.429516      1.063713
  H      -2.389337      2.047807      0.419838
  H      -2.545536      1.792141     -1.325445
  H      -0.570917      3.161547     -0.628258
  H       0.143164      1.754935      0.173604
  H       0.488899     -2.461817     -2.325495
  H      -0.906759     -1.387332     -1.911257
  H      -0.183688     -1.349007     -3.566048
  H       3.274867     -0.952174     -0.416659
  H       2.282990     -1.603533      0.921151
  H       2.075537      0.684490      1.868721
  H       2.465279      2.039280     -0.211049
  H       3.585855      2.514560      1.084422
  H       4.153156      1.485250     -0.256342
  H       4.968800     -0.294178      1.476219
  H       3.826349     -0.896236      2.702644
  H       4.410196      0.781729      2.777250
42
Coordinates from ORCA-job opt E -1378.794696353788
  C      -4.527923     -0.192600      0.001274
  C      -3.254101     -0.518297     -0.781150
  N      -2.012648      0.056618     -0.273535
  C      -1.628974     -0.381853      1.062810
  C      -1.403638     -1.881483      1.183076
  C      -1.944852      1.497630     -0.418595
  C      -0.532370      2.047160     -0.570301
  S       0.283605      1.686396     -2.164778
  P       1.188838     -0.208474     -1.944770
  C       0.026055     -1.448541     -2.511182
  O       2.503673     -0.230285     -2.656872
  O       1.280156     -0.434721     -0.349912
  C       2.498225     -0.716624      0.347670
  C       2.952085      0.469857      1.188274
  C       3.353428      1.665265      0.325377
  C       4.095239      0.034303      2.104524
  H      -5.400526     -0.644396     -0.494339
  H      -4.703047      0.893196      0.061248
  H      -4.490346     -0.586960      1.028558
  H      -3.366689     -0.177772     -1.824020
  H      -3.132365     -1.612474     -0.839037
  H      -0.687242      0.126551      1.316460
  H      -2.369638     -0.051477      1.824477
  H      -0.665758     -2.217751      0.439485
  H      -1.011723     -2.120360      2.183105
  H      -2.328904     -2.460635      1.044056
  H      -2.405229      2.026029      0.445449
  H      -2.528337      1.789673     -1.305948
  H      -0.564975      3.146358     -0.543227
  H       0.133263      1.723082      0.241215
  H       0.487206     -2.437200     -2.371075
  H      -0.897417     -1.360729     -1.925486
  H      -0.174639     -1.279868     -3.578108
  H       3.278857     -1.002351     -0.376787
  H       2.285799     -1.584092      0.990693
  H       2.090492      0.761299      1.816850
  H       2.536162      1.989447     -0.336396
  H       3.635983      2.523795      0.953456
  H       4.215793      1.411961     -0.313354
  H       4.969405     -0.288721      1.515030
  H       3.800480     -0.802236      2.757060
  H       4.416597      0.866412      2.748725
42
Coordinates from ORCA-job opt E -1378.794706043711
  C      -4.533274     -0.189132      0.003104
  C      -3.262311     -0.511575     -0.785082
  N      -2.018502      0.054238     -0.273466
  C      -1.636618     -0.394714      1.059968
  C      -1.421289     -1.896317      1.171483
  C      -1.943939      1.496059     -0.408967
  C      -0.528591      2.039665     -0.557668
  S       0.286546      1.683503     -2.153634
  P       1.194549     -0.211669     -1.938300
  C       0.030226     -1.448090     -2.509352
  O       2.509955     -0.228749     -2.648975
  O       1.283321     -0.445696     -0.344013
  C       2.503413     -0.715610      0.356408
  C       2.958427      0.480965      1.182613
  C       3.366286      1.663760      0.305540
  C       4.098333      0.054190      2.107276
  H      -5.408574     -0.633764     -0.494250
  H      -4.704637      0.896627      0.073877
  H      -4.494150     -0.593233      1.026563
  H      -3.375010     -0.159735     -1.824163
  H      -3.144343     -1.605487     -0.854438
  H      -0.691235      0.105870      1.315451
  H      -2.374420     -0.063756      1.824123
  H      -0.678255     -2.232743      0.433030
  H      -1.042127     -2.145712      2.173834
  H      -2.348842     -2.468575      1.018710
  H      -2.401483      2.020851      0.458792
  H      -2.526755      1.796525     -1.293924
  H      -0.555390      3.138835     -0.523778
  H       0.135164      1.707432      0.252055
  H       0.485536     -2.439307     -2.368745
  H      -0.893572     -1.354070     -1.924971
  H      -0.167475     -1.276737     -3.576433
  H       3.283568     -1.009100     -0.365227
  H       2.293110     -1.575930      1.009484
  H       2.096812      0.783405      1.805762
  H       2.552839      1.981572     -0.363624
  H       3.649224      2.529953      0.922887
  H       4.230332      1.399593     -0.326609
  H       4.972986     -0.278515      1.523894
  H       3.799568     -0.773352      2.769347
  H       4.420595      0.893657      2.741419
42
Coordinates from ORCA-job opt E -1378.794715713928
  C      -4.537091     -0.189395     -0.002467
  C      -3.265116     -0.509173     -0.790036
  N      -2.022008      0.053362     -0.273140
  C      -1.644755     -0.399340      1.060421
  C      -1.434953     -1.901653      1.170447
  C      -1.944612      1.495702     -0.404333
  C      -0.527765      2.035414     -0.552970
  S       0.285430      1.681134     -2.150643
  P       1.196280     -0.213226     -1.935452
  C       0.029899     -1.449783     -2.502177
  O       2.510416     -0.228366     -2.648212
  O       1.286919     -0.447839     -0.340657
  C       2.510745     -0.712822      0.356612
  C       2.966189      0.485451      1.180206
  C       3.372995      1.667231      0.301346
  C       4.107469      0.060345      2.104288
  H      -5.412237     -0.630419     -0.503282
  H      -4.707000      0.896212      0.073907
  H      -4.499966     -0.598910      1.018925
  H      -3.375457     -0.151657     -1.827400
  H      -3.148056     -1.602834     -0.864813
  H      -0.697757      0.096828      1.318913
  H      -2.382805     -0.066696      1.823528
  H      -0.684737     -2.239688      0.439907
  H      -1.068839     -2.155079      2.176601
  H      -2.362571     -2.470792      1.005933
  H      -2.400014      2.018837      0.465473
  H      -2.527864      1.800405     -1.287526
  H      -0.549767      3.134545     -0.514870
  H       0.135886      1.697421      0.254350
  H       0.481703     -2.442290     -2.359985
  H      -0.892526     -1.349633     -1.916408
  H      -0.169495     -1.279869     -3.569197
  H       3.289140     -1.006028     -0.366950
  H       2.304247     -1.572900      1.011113
  H       2.105868      0.788206      1.804899
  H       2.559193      1.984085     -0.367747
  H       3.655935      2.534417      0.917279
  H       4.236567      1.402438     -0.331171
  H       4.980544     -0.276286      1.520806
  H       3.807754     -0.763977      2.769913
  H       4.432212      0.901752      2.734570
42
Coordinates from ORCA-job opt E -1378.794719909513
  C      -4.540031     -0.189581     -0.008164
  C      -3.266216     -0.509037     -0.792899
  N      -2.024198      0.053103     -0.272732
  C      -1.650917     -0.399807      1.061882
  C      -1.440740     -1.902002      1.172469
  C      -1.945874      1.495604     -0.403107
  C      -0.528453      2.033754     -0.551139
  S       0.284644      1.680108     -2.149186
  P       1.197061     -0.213584     -1.934243
  C       0.029279     -1.450660     -2.497124
  O       2.510084     -0.227573     -2.649048
  O       1.290383     -0.447666     -0.339088
  C       2.516565     -0.711791      0.354764
  C       2.971572      0.485759      1.179442
  C       3.375029      1.669541      0.301796
  C       4.114941      0.060538      2.101053
  H      -5.414250     -0.629894     -0.511203
  H      -4.709658      0.896045      0.068638
  H      -4.505366     -0.599798      1.013030
  H      -3.374113     -0.150634     -1.830205
  H      -3.149120     -1.602671     -0.868184
  H      -0.704632      0.096143      1.323607
  H      -2.391193     -0.067468      1.822895
  H      -0.685612     -2.239723      0.446886
  H      -1.081304     -2.155380      2.181048
  H      -2.366877     -2.471940      1.002247
  H      -2.400943      2.018194      0.467106
  H      -2.529032      1.801531     -1.285934
  H      -0.548231      3.132845     -0.511038
  H       0.134778      1.692968      0.255343
  H       0.479088     -2.443792     -2.353268
  H      -0.891644     -1.346740     -1.909492
  H      -0.172498     -1.282659     -3.563994
  H       3.293998     -1.002445     -0.370838
  H       2.312631     -1.573484      1.007957
  H       2.112114      0.786047      1.806479
  H       2.559465      1.986110     -0.365343
  H       3.657785      2.536281      0.918431
  H       4.237820      1.407078     -0.332744
  H       4.987103     -0.275819      1.516064
  H       3.815993     -0.764075      2.766664
  H       4.440571      0.901706      2.731169
42
Coordinates from ORCA-job opt E -1378.794722889511
  C      -4.540184     -0.189315     -0.009199
  C      -3.265890     -0.509544     -0.792859
  N      -2.024107      0.053194     -0.272709
  C      -1.651405     -0.398865      1.062334
  C      -1.439413     -1.900826      1.173622
  C      -1.946164      1.495672     -0.403752
  C      -0.528879      2.033890     -0.551873
  S       0.284285      1.680090     -2.149888
  P       1.196738     -0.213331     -1.934759
  C       0.029040     -1.450927     -2.496632
  O       2.509666     -0.227153     -2.649830
  O       1.290698     -0.446733     -0.339427
  C       2.517175     -0.711831      0.353469
  C       2.971760      0.484740      1.179775
  C       3.373935      1.669938      0.303494
  C       4.115657      0.058893      2.100444
  H      -5.414110     -0.630135     -0.512283
  H      -4.709891      0.896402      0.066217
  H      -4.506164     -0.598314      1.012498
  H      -3.373364     -0.152327     -1.830621
  H      -3.148646     -1.603247     -0.866772
  H      -0.705953      0.098256      1.324919
  H      -2.392668     -0.067199      1.822648
  H      -0.683278     -2.237705      0.448740
  H      -1.080295     -2.153074      2.182613
  H      -2.364610     -2.472176      1.003174
  H      -2.401309      2.018384      0.466320
  H      -2.529485      1.801181     -1.286618
  H      -0.548418      3.132974     -0.511708
  H       0.134383      1.692843      0.254508
  H       0.478891     -2.443918     -2.351960
  H      -0.891492     -1.346628     -1.908415
  H      -0.173696     -1.283931     -3.563454
  H       3.294607     -1.000908     -0.372762
  H       2.313626     -1.574677      1.005279
  H       2.112295      0.783506      1.807511
  H       2.557673      1.986648     -0.362737
  H       3.656496      2.536114      0.921004
  H       4.236539      1.408886     -0.331879
  H       4.987775     -0.276618      1.514921
  H       3.816982     -0.766520      2.765188
  H       4.441197      0.899421      2.731460
42
Coordinates from ORCA-job opt E -1378.794721545801
  C      -4.540258     -0.188772     -0.009242
  C      -3.265943     -0.509555     -0.792639
  N      -2.024074      0.053283     -0.272770
  C      -1.651261     -0.398591      1.062290
  C      -1.438050     -1.900427      1.173485
  C      -1.946199      1.495746     -0.404074
  C      -0.528950      2.033947     -0.552238
  S       0.284205      1.679916     -2.150216
  P       1.196528     -0.213383     -1.935000
  C       0.028985     -1.451242     -2.496447
  O       2.509494     -0.227238     -2.650059
  O       1.290695     -0.446453     -0.339583
  C       2.517170     -0.711966      0.353053
  C       2.971482      0.484267      1.180033
  C       3.373102      1.669992      0.304210
  C       4.115554      0.058322      2.100395
  H      -5.414164     -0.629784     -0.512189
  H      -4.709918      0.897008      0.065445
  H      -4.506419     -0.597108      1.012721
  H      -3.373375     -0.152945     -1.830616
  H      -3.148766     -1.603305     -0.865880
  H      -0.706331      0.099333      1.325230
  H      -2.392956     -0.067625      1.822486
  H      -0.681356     -2.236361      0.448766
  H      -1.078963     -2.152319      2.182578
  H      -2.362644     -2.472618      1.002712
  H      -2.401330      2.018533      0.465960
  H      -2.529607      1.801082     -1.286943
  H      -0.548331      3.133030     -0.512136
  H       0.134279      1.692785      0.254128
  H       0.479010     -2.444074     -2.351199
  H      -0.891354     -1.346885     -1.907926
  H      -0.174246     -1.284896     -3.563258
  H       3.294692     -1.000223     -0.373412
  H       2.313841     -1.575318      1.004269
  H       2.111905      0.782419      1.807909
  H       2.556528      1.986643     -0.361672
  H       3.655591      2.535997      0.921991
  H       4.235651      1.409475     -0.331459
  H       4.987760     -0.276643      1.514695
  H       3.817152     -0.767517      2.764740
  H       4.440871      0.898601      2.731859
