42
Coordinates from ORCA-job opt E -1378.795497393648
  C          -3.16932624696499     -1.71925111672482      0.13774898914238
  C          -3.28248218798544     -0.20885212573525      0.30957461854492
  N          -1.99496404338858      0.48092816282252      0.22461814290186
  C          -1.53710951220946      1.05534547993987      1.48142724912888
  C          -1.31375240315886      0.02564634652590      2.57898461526927
  C          -1.90322424408745      1.41732509496810     -0.87425184440012
  C          -1.93458899691604      0.78922392867691     -2.26342923878594
  S          -0.63805227149604     -0.45321353641342     -2.60758350720128
  P           1.05938166101592      0.76699516354604     -2.39369537415266
  C           2.34769136603486     -0.10686329172692     -3.28870154219350
  O           0.82665770596615      2.18241972366320     -2.80700211501750
  O           1.48153723870779      0.73010083282701     -0.83181908962961
  C           1.62701876690275     -0.47326363760478     -0.07440231619015
  C           2.34584214787137     -0.16801316671215      1.23120617690994
  C           2.45768002592824     -1.45003867135075      2.05565891878368
  C           3.71167022381106      0.47002582740428      0.98671065756307
  H          -2.72844142213503     -1.96694386763976     -0.84017051304719
  H          -2.52365463436936     -2.15657208195677      0.91451653945679
  H          -4.15781970589902     -2.20057749398041      0.20260822567205
  H          -3.76806406823726      0.02027406123111      1.27583265689102
  H          -3.96802664393433      0.19357742101202     -0.45709656106993
  H          -0.58420993726936      1.57047600163494      1.27796907207344
  H          -2.24070348807290      1.83640704250372      1.85065169462337
  H          -2.24862300196453     -0.47256522256565      2.87796874272778
  H          -0.89803469395124      0.51115147745662      3.47466047439092
  H          -0.60611905861172     -0.75088616743068      2.25069200677155
  H          -0.96540239021369      1.98385464934209     -0.77202707980168
  H          -2.72317499303945      2.17100877801440     -0.85345064575979
  H          -1.85491617231051      1.57902544847804     -3.02297744744269
  H          -2.87368650334565      0.24552182481055     -2.44636926999386
  H           2.11796187850433     -0.06181919217055     -4.36172555269571
  H           3.30127684628925      0.40416697392897     -3.09143840379625
  H           2.41970137555617     -1.15700767578637     -2.97316718097197
  H           2.20640249930058     -1.21603652532768     -0.65236036556369
  H           0.62462172210994     -0.89068686969517      0.11524662087615
  H           1.71730489336512      0.55051776579967      1.78794719332924
  H           3.08912337545568     -2.19392461914938      1.54219554137267
  H           2.91185890719281     -1.24561958058295      3.03667585099969
  H           1.47197546063823     -1.90928249192533      2.22902834949110
  H           3.61739684260146      1.41091151704434      0.42575142693989
  H           4.21914907912078      0.68880348947759      1.93858491966114
  H           4.36012462318843     -0.20715825662910      0.40540934419272
