42
Coordinates from ORCA-job opt E -1378.785554823979
  C      -3.043155     -1.776949      0.382436
  C      -3.276159     -0.274238      0.290601
  N      -1.989917      0.434288      0.172746
  C      -1.624496      1.140210      1.417097
  C      -1.404855      0.217388      2.611048
  C      -1.999484      1.401161     -0.949027
  C      -2.018495      0.774494     -2.357400
  S      -0.630471     -0.351952     -2.704898
  P       1.059577      0.816883     -2.347494
  C       2.453857      0.100228     -3.216088
  O       0.817329      2.229704     -2.804365
  O       1.510918      0.768670     -0.795365
  C       1.634322     -0.477520     -0.129743
  C       2.373984     -0.274550      1.196980
  C       2.430189     -1.583223      1.982189
  C       3.786390      0.268387      0.968291
  H      -2.530059     -2.151917     -0.509264
  H      -2.445848     -2.047447      1.257803
  H      -4.002213     -2.299594      0.459478
  H      -3.857278      0.069350      1.155270
  H      -3.924746     -0.094203     -0.574556
  H      -0.679139      1.674633      1.258527
  H      -2.378502      1.895634      1.672691
  H      -2.336049     -0.251090      2.942903
  H      -1.007489      0.790253      3.455551
  H      -0.683744     -0.570637      2.374508
  H      -1.112438      2.043110     -0.886698
  H      -2.860505      2.076396     -0.851542
  H      -1.990821      1.576642     -3.102708
  H      -2.946078      0.220194     -2.527859
  H       2.293543      0.161901     -4.296427
  H       3.370524      0.645302     -2.974029
  H       2.596822     -0.951717     -2.957195
  H       2.174218     -1.191108     -0.759217
  H       0.633551     -0.877409      0.057825
  H       1.828524      0.469965      1.790629
  H       2.984501     -2.352459      1.433683
  H       2.922789     -1.435601      2.949037
  H       1.422984     -1.966215      2.175845
  H       3.760323      1.239711      0.463746
  H       4.307888      0.405396      1.921611
  H       4.379707     -0.416939      0.353379
42
Coordinates from ORCA-job opt E -1378.792508343923
  C      -2.969809     -1.772631      0.390742
  C      -3.186585     -0.263958      0.303091
  N      -1.924850      0.470425      0.138646
  C      -1.519004      1.188446      1.347939
  C      -1.250737      0.284133      2.544452
  C      -1.968683      1.399357     -0.987272
  C      -2.006537      0.732441     -2.361515
  S      -0.632057     -0.409786     -2.696560
  P       0.999663      0.831801     -2.313344
  C       2.396820      0.147835     -3.207236
  O       0.701265      2.253925     -2.689917
  O       1.412796      0.727433     -0.751322
  C       1.566405     -0.537600     -0.104232
  C       2.267085     -0.336819      1.232511
  C       2.374289     -1.673072      1.967051
  C       3.643557      0.308169      1.049607
  H      -2.484119     -2.147991     -0.522530
  H      -2.337550     -2.045149      1.247948
  H      -3.933123     -2.297062      0.502230
  H      -3.739462      0.092205      1.192105
  H      -3.858943     -0.066396     -0.547301
  H      -0.585544      1.729411      1.123550
  H      -2.275666      1.952833      1.624829
  H      -2.167928     -0.194396      2.920074
  H      -0.826580      0.875632      3.369407
  H      -0.527160     -0.503653      2.288356
  H      -1.077087      2.043823     -0.951016
  H      -2.843963      2.077236     -0.908405
  H      -1.997981      1.512241     -3.135987
  H      -2.923845      0.142630     -2.501900
  H       2.224721      0.242952     -4.287936
  H       3.297676      0.716666     -2.938885
  H       2.565433     -0.914257     -2.975174
  H       2.159511     -1.220971     -0.736817
  H       0.570680     -0.985691      0.049316
  H       1.647277      0.348794      1.836489
  H       2.996598     -2.386448      1.402980
  H       2.830962     -1.536053      2.958108
  H       1.384095     -2.132223      2.112841
  H       3.562766      1.293029      0.565989
  H       4.138150      0.452280      2.022195
  H       4.297462     -0.324409      0.426895
42
Coordinates from ORCA-job opt E -1378.794508702435
  C      -3.224008     -1.759713      0.254044
  C      -3.301957     -0.235281      0.260239
  N      -1.995579      0.424517      0.210733
  C      -1.600768      1.018438      1.477757
  C      -1.491707      0.021116      2.622840
  C      -1.899533      1.394953     -0.857516
  C      -1.901900      0.792843     -2.254823
  S      -0.588590     -0.421563     -2.610767
  P       1.086607      0.812691     -2.387186
  C       2.390001     -0.022950     -3.296418
  O       0.826915      2.224573     -2.809473
  O       1.538172      0.779999     -0.831849
  C       1.656950     -0.433408     -0.075810
  C       2.433543     -0.155848      1.197162
  C       2.487485     -1.430077      2.039414
  C       3.829413      0.392106      0.896452
  H      -2.716327     -2.111287     -0.660108
  H      -2.658863     -2.138815      1.121542
  H      -4.232611     -2.209791      0.281695
  H      -3.870687      0.113592      1.147907
  H      -3.901867      0.090021     -0.608473
  H      -0.614847      1.488890      1.320911
  H      -2.305234      1.836892      1.769576
  H      -2.471150     -0.394451      2.915328
  H      -1.066002      0.517526      3.510503
  H      -0.829377     -0.817941      2.351692
  H      -0.970547      1.970571     -0.729733
  H      -2.737495      2.132699     -0.819214
  H      -1.835597      1.596722     -3.003356
  H      -2.828379      0.227513     -2.447612
  H       2.159291      0.016071     -4.371469
  H       3.325676      0.524296     -3.099604
  H       2.515329     -1.075802     -2.994341
  H       2.188393     -1.204966     -0.669241
  H       0.643284     -0.808548      0.154979
  H       1.870519      0.613149      1.760328
  H       3.044968     -2.226320      1.513599
  H       2.994666     -1.240976      2.999397
  H       1.476946     -1.817235      2.260294
  H       3.777060      1.331487      0.323107
  H       4.379888      0.594718      1.830630
  H       4.417921     -0.335281      0.306865
42
Coordinates from ORCA-job opt E -1378.795164317925
  C      -3.201887     -1.749340      0.240049
  C      -3.300045     -0.228832      0.272333
  N      -2.001284      0.445037      0.201984
  C      -1.566780      1.020422      1.467916
  C      -1.423049      0.008111      2.594298
  C      -1.908650      1.409051     -0.875729
  C      -1.908930      0.805664     -2.274508
  S      -0.603838     -0.424740     -2.618539
  P       1.078289      0.804108     -2.383605
  C       2.381393     -0.048979     -3.277238
  O       0.834484      2.219149     -2.797051
  O       1.504082      0.766486     -0.821483
  C       1.620306     -0.441886     -0.060065
  C       2.398208     -0.159204      1.214679
  C       2.484892     -1.438468      2.046509
  C       3.780377      0.417681      0.914566
  H      -2.708569     -2.079365     -0.688134
  H      -2.613627     -2.132451      1.087781
  H      -4.200952     -2.211639      0.282160
  H      -3.848384      0.098419      1.177868
  H      -3.924787      0.103495     -0.573612
  H      -0.588128      1.495525      1.288151
  H      -2.258605      1.832966      1.794621
  H      -2.390949     -0.414454      2.905530
  H      -0.975747      0.490901      3.476682
  H      -0.768754     -0.824281      2.292438
  H      -0.979780      1.985037     -0.748485
  H      -2.742082      2.148997     -0.846420
  H      -1.828004      1.606056     -3.023072
  H      -2.836992      0.249454     -2.477003
  H       2.159419     -0.007277     -4.352390
  H       3.319316      0.488628     -3.070921
  H       2.487534     -1.098992     -2.968991
  H       2.149714     -1.212779     -0.650914
  H       0.606881     -0.812978      0.166133
  H       1.820824      0.591251      1.785986
  H       3.057836     -2.215772      1.512842
  H       2.991655     -1.247106      3.004627
  H       1.488316     -1.850783      2.267891
  H       3.707155      1.355528      0.344812
  H       4.328735      0.626922      1.846403
  H       4.380405     -0.294432      0.321897
42
Coordinates from ORCA-job opt E -1378.795361580158
  C      -3.170399     -1.738916      0.222436
  C      -3.288414     -0.221249      0.281409
  N      -1.996942      0.463006      0.200897
  C      -1.538448      1.030325      1.463193
  C      -1.361850      0.008760      2.575920
  C      -1.910526      1.419019     -0.883431
  C      -1.924710      0.811167     -2.281852
  S      -0.625234     -0.427972     -2.627133
  P       1.066813      0.791483     -2.385305
  C       2.371109     -0.071973     -3.267267
  O       0.836788      2.208659     -2.794374
  O       1.474269      0.750107     -0.819162
  C       1.599322     -0.455951     -0.060052
  C       2.361479     -0.166846      1.225476
  C       2.472584     -1.450596      2.047432
  C       3.732961      0.441473      0.942465
  H      -2.682864     -2.048296     -0.714841
  H      -2.568067     -2.127116      1.056660
  H      -4.162413     -2.213626      0.268440
  H      -3.824685      0.084299      1.199746
  H      -3.930376      0.117292     -0.548996
  H      -0.568150      1.515351      1.268752
  H      -2.225300      1.833936      1.814044
  H      -2.318192     -0.431514      2.895111
  H      -0.910371      0.488474      3.456818
  H      -0.700153     -0.810183      2.256608
  H      -0.979015      1.992707     -0.765290
  H      -2.737602      2.163113     -0.854191
  H      -1.838308      1.609572     -3.031035
  H      -2.858795      0.265459     -2.482756
  H       2.155846     -0.028076     -4.343019
  H       3.312765      0.455335     -3.055447
  H       2.459093     -1.120767     -2.953743
  H       2.140135     -1.218486     -0.648486
  H       0.588342     -0.837100      0.153681
  H       1.763261      0.564504      1.798636
  H       3.069248     -2.208037      1.513146
  H       2.965880     -1.255885      3.011096
  H       1.485643     -1.889468      2.256375
  H       3.644047      1.380178      0.377892
  H       4.268488      0.655576      1.879575
  H       4.352741     -0.252608      0.350573
42
Coordinates from ORCA-job opt E -1378.795409669915
  C      -3.159349     -1.735895      0.221712
  C      -3.285901     -0.218828      0.291325
  N      -1.999670      0.473078      0.200323
  C      -1.534431      1.046786      1.455980
  C      -1.328889      0.026981      2.565617
  C      -1.917582      1.418936     -0.892398
  C      -1.932950      0.802159     -2.287492
  S      -0.627389     -0.432680     -2.629867
  P       1.062929      0.790737     -2.381881
  C       2.370099     -0.066838     -3.265375
  O       0.831253      2.209409     -2.783236
  O       1.464982      0.741711     -0.814973
  C       1.598953     -0.466787     -0.063175
  C       2.348620     -0.179577      1.230239
  C       2.463610     -1.468225      2.043821
  C       3.717218      0.442216      0.962382
  H      -2.677932     -2.037562     -0.721073
  H      -2.547042     -2.124793      1.048512
  H      -4.148289     -2.217027      0.274098
  H      -3.812760      0.076884      1.218131
  H      -3.940617      0.121253     -0.528586
  H      -0.573837      1.546160      1.250540
  H      -2.227265      1.840796      1.816419
  H      -2.273711     -0.436560      2.886785
  H      -0.886320      0.515635      3.446252
  H      -0.648338     -0.775379      2.242960
  H      -0.987495      1.996199     -0.780808
  H      -2.745638      2.162430     -0.868790
  H      -1.848916      1.597862     -3.040073
  H      -2.866463      0.254810     -2.485884
  H       2.155664     -0.017103     -4.341103
  H       3.312603      0.457328     -3.050319
  H       2.452813     -1.117136     -2.954941
  H       2.149986     -1.220813     -0.653114
  H       0.590224     -0.859241      0.141933
  H       1.740082      0.542306      1.804163
  H       3.072662     -2.216098      1.509996
  H       2.945309     -1.276391      3.013976
  H       1.478075     -1.917520      2.239516
  H       3.624461      1.384597      0.404330
  H       4.244292      0.652995      1.905055
  H       4.346954     -0.241683      0.369017
42
Coordinates from ORCA-job opt E -1378.795451035133
  C      -3.168685     -1.728855      0.202501
  C      -3.286357     -0.211805      0.296956
  N      -1.997996      0.475092      0.207456
  C      -1.530736      1.044068      1.463307
  C      -1.322427      0.018627      2.567803
  C      -1.909346      1.417563     -0.886706
  C      -1.933613      0.797734     -2.279993
  S      -0.631387     -0.439603     -2.624514
  P       1.062128      0.782947     -2.387954
  C       2.363362     -0.080163     -3.274908
  O       0.831191      2.200763     -2.792766
  O       1.467499      0.737051     -0.822084
  C       1.611405     -0.469271     -0.069551
  C       2.346305     -0.174173      1.229669
  C       2.461122     -1.461124      2.045874
  C       3.712819      0.457783      0.973622
  H      -2.694778     -2.019093     -0.747876
  H      -2.552549     -2.133116      1.019579
  H      -4.160067     -2.206029      0.254448
  H      -3.803762      0.070754      1.233353
  H      -3.946838      0.145293     -0.511640
  H      -0.570655      1.544981      1.258574
  H      -2.222933      1.836724      1.829521
  H      -2.265530     -0.455526      2.879604
  H      -0.890245      0.505701      3.454852
  H      -0.631852     -0.775608      2.244994
  H      -0.974383      1.987768     -0.779250
  H      -2.731584      2.168521     -0.864048
  H      -1.849863      1.592542     -3.033994
  H      -2.870166      0.253600     -2.473627
  H       2.144255     -0.031087     -4.349950
  H       3.310377      0.438090     -3.065293
  H       2.438825     -1.130798     -2.962047
  H       2.175447     -1.217707     -0.655056
  H       0.605990     -0.874803      0.129452
  H       1.727407      0.544334      1.797028
  H       3.082118     -2.205303      1.520203
  H       2.929189     -1.264934      3.022049
  H       1.475445     -1.916708      2.229648
  H       3.617762      1.400023      0.415032
  H       4.230455      0.671940      1.921025
  H       4.352652     -0.221061      0.384709
42
Coordinates from ORCA-job opt E -1378.795475704980
  C      -3.161218     -1.725454      0.172385
  C      -3.281680     -0.210854      0.300695
  N      -1.996358      0.481351      0.216093
  C      -1.536120      1.049974      1.473653
  C      -1.321196      0.020261      2.573070
  C      -1.906611      1.421600     -0.878808
  C      -1.935234      0.797191     -2.269681
  S      -0.637503     -0.444783     -2.612531
  P       1.060591      0.774780     -2.391446
  C       2.351995     -0.096848     -3.284434
  O       0.831009      2.191567     -2.801390
  O       1.474143      0.732977     -0.827725
  C       1.621259     -0.471057     -0.072451
  C       2.347154     -0.170376      1.229797
  C       2.457265     -1.454768      2.050733
  C       3.714165      0.463432      0.980016
  H      -2.694975     -1.994647     -0.788186
  H      -2.535806     -2.144158      0.975524
  H      -4.150671     -2.207091      0.223633
  H      -3.789896      0.048159      1.248749
  H      -3.951760      0.163230     -0.492839
  H      -0.579728      1.559812      1.272784
  H      -2.235534      1.835450      1.843040
  H      -2.259852     -0.471094      2.872018
  H      -0.905212      0.507421      3.468032
  H      -0.615229     -0.760749      2.250955
  H      -0.970416      1.990291     -0.774743
  H      -2.727910      2.174408     -0.856967
  H      -1.851256      1.589724     -3.026252
  H      -2.874299      0.255600     -2.458847
  H       2.126045     -0.048449     -4.358213
  H       3.304927      0.413586     -3.082423
  H       2.419827     -1.147820     -2.969932
  H       2.193183     -1.217301     -0.653673
  H       0.617812     -0.884154      0.123438
  H       1.724109      0.549419      1.791173
  H       3.083846     -2.199812      1.532661
  H       2.916081     -1.255001      3.030708
  H       1.469990     -1.910416      2.226758
  H       3.620340      1.405400      0.420379
  H       4.226840      0.679112      1.929959
  H       4.357884     -0.214783      0.394286
42
Coordinates from ORCA-job opt E -1378.795487152866
  C      -3.163643     -1.721243      0.150906
  C      -3.279529     -0.208987      0.308013
  N      -1.993807      0.482900      0.223393
  C      -1.536082      1.054429      1.480591
  C      -1.315574      0.024301      2.578528
  C      -1.902430      1.419825     -0.874190
  C      -1.934542      0.791727     -2.263540
  S      -0.638358     -0.450716     -2.608182
  P       1.060445      0.768965     -2.395850
  C       2.346871     -0.105518     -3.293147
  O       0.829112      2.184907     -2.808664
  O       1.480261      0.729425     -0.833780
  C       1.630023     -0.474179     -0.078353
  C       2.343965     -0.169297      1.229348
  C       2.452691     -1.452460      2.052510
  C       3.709978      0.470748      0.989954
  H      -2.711153     -1.974946     -0.820334
  H      -2.527259     -2.153665      0.938191
  H      -4.152793     -2.202706      0.207806
  H      -3.774325      0.031150      1.267550
  H      -3.959684      0.182382     -0.468945
  H      -0.582199      1.569062      1.279709
  H      -2.239197      1.836199      1.850971
  H      -2.250956     -0.476471      2.871881
  H      -0.907328      0.511968      3.476743
  H      -0.602219     -0.749631      2.256039
  H      -0.964653      1.986572     -0.773042
  H      -2.722224      2.174411     -0.853043
  H      -1.853801      1.582460     -3.022304
  H      -2.874294      0.249474     -2.447474
  H       2.116552     -0.057378     -4.366005
  H       3.302773      0.401097     -3.095726
  H       2.412433     -1.156744     -2.978911
  H       2.212589     -1.215100     -0.655928
  H       0.629061     -0.896498      0.110207
  H       1.713563      0.548527      1.785095
  H       3.087092     -2.195381      1.541002
  H       2.901392     -1.249593      3.036498
  H       1.465673     -1.911711      2.219744
  H       3.615963      1.412861      0.430629
  H       4.214726      0.688076      1.943766
  H       4.360885     -0.204110      0.408343
42
Coordinates from ORCA-job opt E -1378.795506278753
  C      -3.177155     -1.718522      0.138925
  C      -3.284147     -0.207387      0.310376
  N      -1.994822      0.478715      0.225529
  C      -1.535257      1.050746      1.482468
  C      -1.315965      0.020653      2.580609
  C      -1.900717      1.415745     -0.872176
  C      -1.932380      0.788073     -2.261579
  S      -0.636232     -0.454027     -2.606099
  P       1.061225      0.766982     -2.395988
  C       2.347492     -0.107628     -3.293270
  O       0.827718      2.182007     -2.811075
  O       1.484357      0.730587     -0.834566
  C       1.632441     -0.472266     -0.077183
  C       2.347252     -0.165236      1.229834
  C       2.456762     -1.446557      2.055758
  C       3.713216      0.474002      0.988511
  H      -2.735238     -1.966849     -0.838406
  H      -2.535314     -2.159938      0.916604
  H      -4.167893     -2.195656      0.201219
  H      -3.770398      0.024964      1.275701
  H      -3.967734      0.196007     -0.457593
  H      -0.580328      1.562769      1.280019
  H      -2.236295      1.834300      1.852229
  H      -2.252385     -0.476499      2.876426
  H      -0.903095      0.506287      3.477638
  H      -0.607547     -0.756468      2.255387
  H      -0.961792      1.980487     -0.769771
  H      -2.719286      2.171263     -0.851131
  H      -1.852666      1.578479     -3.020605
  H      -2.871695      0.244754     -2.444586
  H       2.116050     -0.061721     -4.365932
  H       3.302901      0.400597     -3.097643
  H       2.416355     -1.158282     -2.978263
  H       2.215472     -1.213387     -0.653847
  H       0.631529     -0.894130      0.111448
  H       1.717134      0.553746      1.784332
  H       3.090395     -2.190762      1.545354
  H       2.906690     -1.241269      3.038596
  H       1.470116     -1.905339      2.225307
  H       3.619232      1.415022      0.427568
  H       4.218360      0.693180      1.941609
  H       4.363644     -0.202310      0.408265
42
Coordinates from ORCA-job opt E -1378.795498034475
  C      -3.167659     -1.719775      0.138241
  C      -3.281677     -0.209399      0.309406
  N      -1.994829      0.481534      0.224303
  C      -1.537207      1.057047      1.480781
  C      -1.310960      0.028424      2.578769
  C      -1.904407      1.417810     -0.874657
  C      -1.934968      0.789146     -2.263579
  S      -0.638197     -0.452988     -2.607175
  P       1.059086      0.767399     -2.393122
  C       2.346774     -0.106199     -3.289268
  O       0.826121      2.182963     -2.806144
  O       1.481617      0.729514     -0.831420
  C       1.627575     -0.474358     -0.074963
  C       2.344996     -0.169564      1.231523
  C       2.456476     -1.451995      2.055415
  C       3.710714      0.469365      0.988755
  H      -2.726322     -1.967155     -0.839538
  H      -2.522159     -2.156936      0.915217
  H      -4.155885     -2.201540      0.202729
  H      -3.767749      0.020124      1.275243
  H      -3.967355      0.191908     -0.457809
  H      -0.585369      1.573840      1.276544
  H      -2.241924      1.836951      1.850417
  H      -2.244521     -0.471849      2.878193
  H      -0.896269      0.515418      3.474084
  H      -0.601596     -0.746575      2.250724
  H      -0.967272      1.985479     -0.772764
  H      -2.725274      2.170457     -0.853846
  H      -1.855785      1.578702     -3.023407
  H      -2.873785      0.244858     -2.446243
  H       2.116582     -0.060160     -4.362136
  H       3.300964      0.403687     -3.092079
  H       2.417864     -1.156694     -2.974742
  H       2.208491     -1.215804     -0.653072
  H       0.625764     -0.893578      0.113595
  H       1.715776      0.548470      1.788106
  H       3.088881     -2.195338      1.542400
  H       2.909153     -1.247917      3.037175
  H       1.470696     -1.911561      2.227107
  H       3.616369      1.410735      0.428666
  H       4.217278      0.687579      1.941232
  H       4.359993     -0.206893      0.407339
42
Coordinates from ORCA-job opt E -1378.795497393648
  C      -3.169326     -1.719251      0.137749
  C      -3.282482     -0.208852      0.309575
  N      -1.994964      0.480928      0.224618
  C      -1.537110      1.055345      1.481427
  C      -1.313752      0.025646      2.578985
  C      -1.903224      1.417325     -0.874252
  C      -1.934589      0.789224     -2.263429
  S      -0.638052     -0.453214     -2.607584
  P       1.059382      0.766995     -2.393695
  C       2.347691     -0.106863     -3.288702
  O       0.826658      2.182420     -2.807002
  O       1.481537      0.730101     -0.831819
  C       1.627019     -0.473264     -0.074402
  C       2.345842     -0.168013      1.231206
  C       2.457680     -1.450039      2.055659
  C       3.711670      0.470026      0.986711
  H      -2.728441     -1.966944     -0.840171
  H      -2.523655     -2.156572      0.914517
  H      -4.157820     -2.200577      0.202608
  H      -3.768064      0.020274      1.275833
  H      -3.968027      0.193577     -0.457097
  H      -0.584210      1.570476      1.277969
  H      -2.240703      1.836407      1.850652
  H      -2.248623     -0.472565      2.877969
  H      -0.898035      0.511151      3.474660
  H      -0.606119     -0.750886      2.250692
  H      -0.965402      1.983855     -0.772027
  H      -2.723175      2.171009     -0.853451
  H      -1.854916      1.579025     -3.022977
  H      -2.873687      0.245522     -2.446369
  H       2.117962     -0.061819     -4.361726
  H       3.301277      0.404167     -3.091438
  H       2.419701     -1.157008     -2.973167
  H       2.206402     -1.216037     -0.652360
  H       0.624622     -0.890687      0.115247
  H       1.717305      0.550518      1.787947
  H       3.089123     -2.193925      1.542196
  H       2.911859     -1.245620      3.036676
  H       1.471975     -1.909282      2.229028
  H       3.617397      1.410912      0.425751
  H       4.219149      0.688803      1.938585
  H       4.360125     -0.207158      0.405409
