27
Coordinates from ORCA-job opt E -867.508641153270
  C           0.19275956986958     -1.85401452738060     -1.01324080362794
  C           0.03637373505758     -0.74187783183370      0.00783348365473
  O           1.03991912628856      0.26684317506470     -0.28967023707261
  P           2.41235990384310      0.34929839794148      0.51628177074655
  C           3.42016068892743      1.43574871073403     -0.46440429044618
  O           2.98171938781860     -0.93808826423364      0.97974002572569
  F           2.02027069922807      1.26655794962736      1.77468406307501
  C          -1.33700298603019     -0.03829433138718      0.06852327187363
  C          -1.28728021306462      1.03959395838477      1.16069803279470
  C          -2.40614056413987     -1.07375365129634      0.44424181715863
  C          -1.68478418039421      0.61122819460951     -1.27674893124410
  H           1.20329178640237     -2.27934776174394     -0.93518519079678
  H           0.05220628527940     -1.47710981639039     -2.03658901841919
  H          -0.52962712243289     -2.66127326596219     -0.83132878340821
  H           0.24815117474316     -1.14706494623970      1.01263755371781
  H           2.85743627423430      2.34465386154109     -0.71335320536977
  H           4.32101054590067      1.69547016180574      0.10758371965488
  H           3.70863742389842      0.90963538335735     -1.38420553540261
  H          -2.27185582193248      1.52075284814438      1.26675891763547
  H          -1.01590445876735      0.60350965813479      2.13577858146197
  H          -0.55054386886617      1.82035667138479      0.92353586356905
  H          -2.14672680151612     -1.59598464238646      1.37958702588726
  H          -2.54637031517392     -1.83092814643174     -0.34186304250786
  H          -3.37501985395040     -0.57373585516359      0.59680415380740
  H          -1.80061810754049     -0.13734188037649     -2.07550634513635
  H          -0.90621928147203      1.32534401969652     -1.58433344543825
  H          -2.63620304621049      1.15982198039944     -1.19754149189293
