27
Coordinates from ORCA-job opt E -867.501145073505
  C       0.176327     -1.907398     -0.977369
  C       0.082109     -0.735836     -0.002095
  O       1.072542      0.215946     -0.391868
  P       2.422370      0.299017      0.494658
  C       3.390219      1.525093     -0.353505
  O       3.104354     -1.027334      0.657285
  F       1.885233      0.806891      1.880726
  C      -1.309906     -0.035428      0.052607
  C      -1.255431      1.115608      1.080494
  C      -2.401804     -1.024892      0.498515
  C      -1.706404      0.564636     -1.309689
  H       1.183461     -2.338227     -0.952597
  H       0.012553     -1.585895     -2.010687
  H      -0.531941     -2.703403     -0.734367
  H       0.319205     -1.112096      1.001808
  H       2.834289      2.463021     -0.436491
  H       4.316624      1.723609      0.192056
  H       3.647774      1.186153     -1.360634
  H      -2.231564      1.603934      1.181225
  H      -0.966958      0.745336      2.070690
  H      -0.534025      1.886014      0.786872
  H      -2.135475     -1.505589      1.446371
  H      -2.566422     -1.811101     -0.245304
  H      -3.361149     -0.514732      0.643769
  H      -1.833542     -0.211290     -2.071468
  H      -0.954386      1.273691     -1.672179
  H      -2.658054      1.104271     -1.238106
27
Coordinates from ORCA-job opt E -867.505859807580
  C       0.142136     -1.914557     -0.986472
  C       0.058456     -0.751039     -0.008597
  O       1.063259      0.213066     -0.379999
  P       2.418761      0.301665      0.489492
  C       3.365500      1.542855     -0.354040
  O       3.109422     -1.003204      0.711038
  F       1.902672      0.887569      1.863099
  C      -1.307286     -0.034256      0.051041
  C      -1.224593      1.099486      1.087642
  C      -2.389370     -1.029031      0.491981
  C      -1.678920      0.563517     -1.313696
  H       1.147552     -2.358241     -0.947218
  H      -0.021746     -1.580146     -2.021735
  H      -0.584784     -2.702271     -0.746511
  H       0.279856     -1.135039      1.002794
  H       2.791547      2.475382     -0.452772
  H       4.289503      1.752356      0.202017
  H       3.627023      1.175420     -1.354374
  H      -2.196480      1.605927      1.189653
  H      -0.941454      0.711311      2.079413
  H      -0.481705      1.857557      0.797749
  H      -2.120263     -1.516627      1.443415
  H      -2.554626     -1.816187     -0.259708
  H      -3.349183     -0.511980      0.640020
  H      -1.814146     -0.216233     -2.079585
  H      -0.905956      1.261388     -1.670503
  H      -2.625177      1.121313     -1.243428
27
Coordinates from ORCA-job opt E -867.508090198904
  C       0.152789     -1.917320     -0.975047
  C       0.038615     -0.756967     -0.003859
  O       1.063371      0.213267     -0.352733
  P       2.448878      0.258818      0.453554
  C       3.348812      1.557806     -0.348718
  O       3.142626     -1.035327      0.659986
  F       2.009202      0.880500      1.854287
  C      -1.319464     -0.024968      0.046904
  C      -1.236778      1.102773      1.082472
  C      -2.394995     -1.023236      0.488872
  C      -1.675374      0.563300     -1.322567
  H       1.157911     -2.358737     -0.893701
  H       0.006003     -1.582935     -2.014025
  H      -0.583486     -2.701261     -0.747288
  H       0.245576     -1.135290      1.015611
  H       2.754505      2.481888     -0.398996
  H       4.282182      1.746379      0.201640
  H       3.585402      1.209999     -1.364422
  H      -2.214908      1.602297      1.179804
  H      -0.952132      0.713943      2.075327
  H      -0.495904      1.862408      0.790620
  H      -2.125352     -1.508601      1.443524
  H      -2.561519     -1.813103     -0.261211
  H      -3.353247     -0.498960      0.636459
  H      -1.817672     -0.219805     -2.085430
  H      -0.888766      1.249065     -1.676625
  H      -2.616275      1.134064     -1.253722
27
Coordinates from ORCA-job opt E -867.508340826147
  C       0.160685     -1.917119     -0.980682
  C       0.036268     -0.763242     -0.002387
  O       1.057701      0.215566     -0.340230
  P       2.442777      0.263207      0.456479
  C       3.345979      1.553336     -0.360699
  O       3.123137     -1.030704      0.693376
  F       2.010865      0.925943      1.847536
  C      -1.320407     -0.028165      0.048180
  C      -1.231362      1.095202      1.089341
  C      -2.401340     -1.025936      0.485245
  C      -1.672771      0.568390     -1.319458
  H       1.165108     -2.355207     -0.893886
  H       0.016494     -1.577920     -2.017060
  H      -0.574441     -2.703364     -0.760609
  H       0.242747     -1.139588      1.016237
  H       2.750569      2.473539     -0.419778
  H       4.276858      1.742854      0.190674
  H       3.585027      1.195061     -1.371812
  H      -2.205775      1.598843      1.188203
  H      -0.949934      0.700301      2.079087
  H      -0.485518      1.850833      0.802065
  H      -2.136503     -1.512503      1.438573
  H      -2.567793     -1.813250     -0.265655
  H      -3.357847     -0.499883      0.630605
  H      -1.818537     -0.209889     -2.084545
  H      -0.882322      1.250224     -1.668782
  H      -2.609665      1.143470     -1.249298
27
Coordinates from ORCA-job opt E -867.508478966652
  C       0.172260     -1.902602     -0.978386
  C       0.036212     -0.757759      0.008970
  O       1.053217      0.229244     -0.318657
  P       2.442359      0.273438      0.461588
  C       3.363059      1.530631     -0.392616
  O       3.093587     -1.027331      0.736932
  F       2.034364      0.991299      1.839055
  C      -1.325750     -0.029760      0.054366
  C      -1.253365      1.084837      1.108304
  C      -2.407409     -1.037485      0.470482
  C      -1.670668      0.578975     -1.310649
  H       1.177670     -2.336147     -0.890107
  H       0.029349     -1.556536     -2.011770
  H      -0.559851     -2.693604     -0.766994
  H       0.242029     -1.135025      1.025974
  H       2.776295      2.454117     -0.465419
  H       4.297131      1.716728      0.153118
  H       3.596496      1.153161     -1.397535
  H      -2.232166      1.578508      1.206085
  H      -0.975658      0.681840      2.094924
  H      -0.512468      1.849222      0.834801
  H      -2.152708     -1.526964      1.423871
  H      -2.557373     -1.820918     -0.287023
  H      -3.369471     -0.520024      0.605012
  H      -1.804544     -0.193070     -2.083211
  H      -0.881425      1.268054     -1.645776
  H      -2.611172      1.147171     -1.244619
27
Coordinates from ORCA-job opt E -867.508547703422
  C       0.182474     -1.887060     -0.985977
  C       0.036392     -0.753223      0.012849
  O       1.047537      0.243244     -0.302296
  P       2.434179      0.294419      0.477806
  C       3.381697      1.501843     -0.420493
  O       3.056242     -1.007838      0.810754
  F       2.038192      1.078191      1.825846
  C      -1.330030     -0.033503      0.058803
  C      -1.267418      1.070479      1.124765
  C      -2.410198     -1.048773      0.460172
  C      -1.673620      0.588626     -1.300810
  H       1.190484     -2.315482     -0.901075
  H       0.039130     -1.531231     -2.015904
  H      -0.544691     -2.684961     -0.784210
  H       0.242143     -1.137102      1.027059
  H       2.805843      2.429298     -0.526587
  H       4.314477      1.693716      0.125736
  H       3.617916      1.090685     -1.411082
  H      -2.249034      1.558002      1.225369
  H      -0.990763      0.657659      2.107792
  H      -0.529377      1.841524      0.862395
  H      -2.158152     -1.545782      1.410498
  H      -2.553300     -1.825708     -0.305249
  H      -3.375193     -0.536886      0.594785
  H      -1.801583     -0.176483     -2.081241
  H      -0.886401      1.284552     -1.626360
  H      -2.616945      1.151794     -1.232626
27
Coordinates from ORCA-job opt E -867.508571580202
  C       0.198950     -1.854824     -1.003823
  C       0.037346     -0.741505      0.015223
  O       1.037909      0.270654     -0.280425
  P       2.414951      0.344761      0.511861
  C       3.419280      1.435982     -0.470799
  O       2.980014     -0.945868      0.972675
  F       2.035161      1.263771      1.779513
  C      -1.337636     -0.039447      0.067557
  C      -1.294083      1.039859      1.159655
  C      -2.409884     -1.073572      0.438962
  C      -1.681324      0.610675     -1.278927
  H       1.211820     -2.274214     -0.927028
  H       0.053586     -1.480913     -2.027287
  H      -0.519038     -2.665001     -0.818624
  H       0.245396     -1.140418      1.022967
  H       2.868380      2.365628     -0.662634
  H       4.345069      1.649919      0.079781
  H       3.666061      0.943001     -1.420170
  H      -2.281528      1.514360      1.267335
  H      -1.018402      0.605581      2.134190
  H      -0.562639      1.824950      0.921164
  H      -2.158193     -1.589762      1.379574
  H      -2.541159     -1.834479     -0.344847
  H      -3.380986     -0.574898      0.579886
  H      -1.797625     -0.138507     -2.076817
  H      -0.900204      1.322326     -1.585189
  H      -2.631220      1.161940     -1.203055
27
Coordinates from ORCA-job opt E -867.508614470879
  C       0.191819     -1.863746     -1.002037
  C       0.036658     -0.744783      0.011726
  O       1.041136      0.261832     -0.289739
  P       2.419410      0.332124      0.504810
  C       3.409871      1.455350     -0.453514
  O       3.002501     -0.962628      0.930052
  F       2.029510      1.211200      1.794195
  C      -1.335371     -0.037663      0.064835
  C      -1.284021      1.049266      1.148473
  C      -2.408457     -1.066412      0.447645
  C      -1.680914      0.602849     -1.285476
  H       1.203113     -2.287157     -0.924135
  H       0.047573     -1.494087     -2.027444
  H      -0.529435     -2.670140     -0.812375
  H       0.244700     -1.142115      1.020417
  H       2.851036      2.383539     -0.629718
  H       4.333968      1.669532      0.100009
  H       3.660160      0.980402     -1.411373
  H      -2.268843      1.529992      1.253973
  H      -1.008788      0.621284      2.126043
  H      -0.548815      1.828780      0.902482
  H      -2.153581     -1.578437      1.389879
  H      -2.546481     -1.831495     -0.331108
  H      -3.377110     -0.563323      0.590876
  H      -1.801501     -0.151715     -2.077877
  H      -0.898861      1.310345     -1.599435
  H      -2.629273      1.157209     -1.210465
27
Coordinates from ORCA-job opt E -867.508630804425
  C       0.190604     -1.861622     -1.006665
  C       0.036450     -0.744149      0.008715
  O       1.041260      0.262115     -0.292571
  P       2.416547      0.338233      0.509206
  C       3.412717      1.450356     -0.454341
  O       2.997226     -0.953555      0.946860
  F       2.021858      1.227419      1.787787
  C      -1.335564     -0.037734      0.065483
  C      -1.283008      1.046808      1.151021
  C      -2.406685     -1.068351      0.447999
  C      -1.682699      0.604484     -1.283404
  H       1.201556     -2.286291     -0.929416
  H       0.047408     -1.490106     -2.031717
  H      -0.531272     -2.667949     -0.818574
  H       0.246011     -1.144761      1.015978
  H       2.853827      2.374421     -0.651594
  H       4.330215      1.677350      0.105148
  H       3.673717      0.960336     -1.401786
  H      -2.266942      1.529577      1.256413
  H      -1.009694      0.616410      2.128189
  H      -0.545735      1.825249      0.907487
  H      -2.148874     -1.583808      1.387689
  H      -2.547222     -1.831113     -0.332737
  H      -3.374970     -0.565715      0.596033
  H      -1.803257     -0.148745     -2.077217
  H      -0.901766      1.313486     -1.597087
  H      -2.631711      1.157654     -1.206181
27
Coordinates from ORCA-job opt E -867.508634814674
  C       0.191299     -1.856349     -1.012611
  C       0.036395     -0.742469      0.006545
  O       1.040709      0.264891     -0.292840
  P       2.412381      0.348382      0.515710
  C       3.418687      1.438934     -0.460717
  O       2.984785     -0.938609      0.977265
  F       2.016243      1.260951      1.775560
  C      -1.336502     -0.038126      0.067416
  C      -1.285183      1.041218      1.157892
  C      -2.405288     -1.072730      0.445684
  C      -1.684722      0.609156     -1.278663
  H       1.201988     -2.281722     -0.935657
  H       0.049590     -1.481202     -2.036587
  H      -0.530837     -2.663346     -0.828223
  H       0.247999     -1.147208      1.011750
  H       2.860346      2.355327     -0.692167
  H       4.326382      1.685490      0.106397
  H       3.695424      0.923462     -1.390074
  H      -2.269079      1.523962      1.263707
  H      -1.013931      0.606170      2.133582
  H      -0.547174      1.820499      0.919522
  H      -2.145182     -1.593673      1.381680
  H      -2.546618     -1.831219     -0.339078
  H      -3.373860     -0.572033      0.598569
  H      -1.802980     -0.140729     -2.075972
  H      -0.905588      1.321608     -1.588941
  H      -2.635285      1.159362     -1.199032
27
Coordinates from ORCA-job opt E -867.508637467731
  C       0.192441     -1.853723     -1.013913
  C       0.036364     -0.741477      0.006959
  O       1.040249      0.266789     -0.291057
  P       2.411727      0.351009      0.517372
  C       3.421003      1.434438     -0.464163
  O       2.980427     -0.935075      0.985450
  F       2.018109      1.271559      1.772220
  C      -1.337142     -0.038213      0.068403
  C      -1.287461      1.039306      1.160754
  C      -2.405374     -1.074421      0.444282
  C      -1.685253      0.611107     -1.276772
  H       1.203075     -2.279022     -0.936424
  H       0.051578     -1.477036     -2.037380
  H      -0.529701     -2.661135     -0.831509
  H       0.248436     -1.147310      1.011534
  H       2.861937      2.346902     -0.708582
  H       4.324803      1.688952      0.105575
  H       3.704129      0.909588     -1.386339
  H      -2.271980      1.520637      1.266811
  H      -1.016284      0.602925      2.135811
  H      -0.550459      1.819967      0.924046
  H      -2.145177     -1.597076      1.379221
  H      -2.545986     -1.831404     -0.341995
  H      -3.374317     -0.574736      0.597865
  H      -1.801568     -0.137477     -2.075511
  H      -0.906882      1.325242     -1.584924
  H      -2.636696      1.159685     -1.197018
27
Coordinates from ORCA-job opt E -867.508642027437
  C       0.192951     -1.853518     -1.013716
  C       0.036358     -0.741641      0.007622
  O       1.039925      0.267122     -0.289761
  P       2.412005      0.350246      0.516966
  C       3.420682      1.434612     -0.464846
  O       2.980476     -0.936525      0.983089
  F       2.019934      1.270063      1.773296
  C      -1.337152     -0.038307      0.068624
  C      -1.287641      1.039213      1.161089
  C      -2.405947     -1.074232      0.444084
  C      -1.685030      0.611451     -1.276495
  H       1.203489     -2.278820     -0.935607
  H       0.052550     -1.476435     -2.037018
  H      -0.529361     -2.660905     -0.832076
  H       0.248333     -1.147197      1.012237
  H       2.859349      2.344403     -0.713636
  H       4.322244      1.693222      0.106517
  H       3.707786      0.907729     -1.384634
  H      -2.272307      1.520157      1.267218
  H      -1.016257      0.602889      2.136054
  H      -0.551048      1.820191      0.924233
  H      -2.146240     -1.596877      1.379103
  H      -2.546300     -1.831092     -0.342287
  H      -3.374857     -0.574423      0.597156
  H      -1.800708     -0.136922     -2.075446
  H      -0.906643      1.325815     -1.583929
  H      -2.636590      1.159782     -1.197117
27
Coordinates from ORCA-job opt E -867.508641153270
  C       0.192760     -1.854015     -1.013241
  C       0.036374     -0.741878      0.007833
  O       1.039919      0.266843     -0.289670
  P       2.412360      0.349298      0.516282
  C       3.420161      1.435749     -0.464404
  O       2.981719     -0.938088      0.979740
  F       2.020271      1.266558      1.774684
  C      -1.337003     -0.038294      0.068523
  C      -1.287280      1.039594      1.160698
  C      -2.406141     -1.073754      0.444242
  C      -1.684784      0.611228     -1.276749
  H       1.203292     -2.279348     -0.935185
  H       0.052206     -1.477110     -2.036589
  H      -0.529627     -2.661273     -0.831329
  H       0.248151     -1.147065      1.012638
  H       2.857436      2.344654     -0.713353
  H       4.321011      1.695470      0.107584
  H       3.708637      0.909635     -1.384206
  H      -2.271856      1.520753      1.266759
  H      -1.015904      0.603510      2.135779
  H      -0.550544      1.820357      0.923536
  H      -2.146727     -1.595985      1.379587
  H      -2.546370     -1.830928     -0.341863
  H      -3.375020     -0.573736      0.596804
  H      -1.800618     -0.137342     -2.075506
  H      -0.906219      1.325344     -1.584333
  H      -2.636203      1.159822     -1.197541
