21
Coordinates from ORCA-job opt E -797.922674268777
  C           3.13435354902447      1.08256601024910      0.22241442418340
  C           2.28979007503253     -0.16678736231237      0.26295948303663
  O           0.90276693493253      0.22212914984583      0.15848978380387
  P          -0.27703353840954     -0.83173543244105      0.33936632822478
  O          -0.29685256998826     -1.66597029322037      1.56431852796988
  C           0.01536905785920     -1.92661967685869     -1.09243347359836
  N           0.18076759333495     -2.65615434955760     -1.97488025779722
  N          -1.62197001509985      0.03176548436762      0.01090231091781
  C          -1.69543558494325      0.98203585266503     -1.09077160146230
  C          -2.88106936440416     -0.29110470977007      0.66930965519034
  H           2.98559775428789      1.62343928595593     -0.72330404662758
  H           4.19637755374990      0.81033765307591      0.30333638311175
  H           2.88097705256634      1.75157680574961      1.05730735822741
  H           2.42718433281624     -0.71933994702787      1.20485647973482
  H           2.53270459852298     -0.84084645097300     -0.57499198686770
  H          -2.37899701717195      0.61661253025785     -1.87458617376274
  H          -0.70364075500500      1.13858357000772     -1.53264127493801
  H          -2.06578960708500      1.95223101051965     -0.72444776070586
  H          -2.70736236744594     -1.01775347906740      1.47191244964019
  H          -3.60240900604254     -0.71517316542349     -0.04831226218464
  H          -3.31532865653154      0.62020751395767      1.10947761390355
