21
Coordinates from ORCA-job opt E -797.906283373451
  C       3.307542      0.806787     -0.356284
  C       2.234748      0.034496      0.383211
  O       0.996719      0.230633     -0.280450
  P      -0.274648     -0.620321      0.245707
  O      -0.297070     -0.783480      1.738050
  C       0.025692     -2.314413     -0.408038
  N       0.216259     -3.380688     -0.836795
  N      -1.620451      0.025850     -0.463376
  C      -1.828339      1.451308     -0.222632
  C      -2.871782     -0.688651     -0.221563
  H       3.384057      0.463323     -1.393243
  H       4.280260      0.685573      0.128472
  H       3.060462      1.873012     -0.391504
  H       2.153095      0.397995      1.412276
  H       2.483996     -1.030847      0.400820
  H      -2.659312      1.839736     -0.821614
  H      -0.940328      2.021897     -0.513197
  H      -2.030029      1.653731      0.834758
  H      -2.773084     -1.741661     -0.503279
  H      -3.687267     -0.278255     -0.827187
  H      -3.160519     -0.646025      0.834151
21
Coordinates from ORCA-job opt E -797.913568488362
  C       3.263614      0.827702     -0.383607
  C       2.239992      0.035500      0.398696
  O       0.960512      0.214528     -0.223866
  P      -0.284565     -0.636129      0.332157
  O      -0.303248     -0.833471      1.814339
  C      -0.032656     -2.283016     -0.407965
  N       0.125199     -3.322846     -0.887917
  N      -1.603651      0.018922     -0.407100
  C      -1.767725      1.466439     -0.222902
  C      -2.855713     -0.723116     -0.227271
  H       3.310266      0.480568     -1.426650
  H       4.258093      0.718230      0.069552
  H       2.998463      1.895438     -0.399232
  H       2.187574      0.388408      1.439254
  H       2.506555     -1.034604      0.404161
  H      -2.560415      1.836074     -0.886349
  H      -0.844200      1.999070     -0.490193
  H      -2.028083      1.720139      0.819105
  H      -2.725034     -1.783092     -0.494667
  H      -3.625913     -0.315380     -0.894446
  H      -3.219064     -0.669364      0.813180
21
Coordinates from ORCA-job opt E -797.916400123342
  C       3.208334      0.863526     -0.401196
  C       2.246643      0.037100      0.417147
  O       0.929295      0.180042     -0.161772
  P      -0.286276     -0.673492      0.420976
  O      -0.290224     -0.920391      1.887444
  C      -0.098838     -2.257421     -0.431892
  N       0.016835     -3.266561     -0.980879
  N      -1.580544      0.001485     -0.342434
  C      -1.697614      1.461529     -0.239916
  C      -2.840546     -0.734415     -0.210755
  H       3.234533      0.514493     -1.444607
  H       4.219875      0.780063      0.022222
  H       2.913049      1.923971     -0.395126
  H       2.212238      0.374218      1.464430
  H       2.536141     -1.028233      0.407724
  H      -2.447863      1.796910     -0.970083
  H      -0.741654      1.939512     -0.488142
  H      -2.011227      1.784872      0.768897
  H      -2.692880     -1.801195     -0.436319
  H      -3.551803     -0.334275     -0.946931
  H      -3.277476     -0.641736      0.799493
21
Coordinates from ORCA-job opt E -797.916949498481
  C       3.193021      0.890945     -0.386965
  C       2.253172      0.034154      0.424100
  O       0.929646      0.157343     -0.148568
  P      -0.279740     -0.704167      0.430364
  O      -0.268234     -0.983147      1.888225
  C      -0.115552     -2.265843     -0.470738
  N      -0.014502     -3.261760     -1.048104
  N      -1.578475     -0.012793     -0.318451
  C      -1.672611      1.450866     -0.272807
  C      -2.851539     -0.721648     -0.173099
  H       3.224770      0.554228     -1.433546
  H       4.206725      0.821787      0.033555
  H       2.877729      1.944700     -0.364039
  H       2.211598      0.354360      1.475951
  H       2.558502     -1.025552      0.399453
  H      -2.411214      1.767552     -1.023025
  H      -0.705387      1.899249     -0.528993
  H      -1.992921      1.818814      0.717536
  H      -2.717146     -1.797750     -0.356033
  H      -3.547669     -0.338076     -0.932435
  H      -3.300173     -0.583262      0.825902
21
Coordinates from ORCA-job opt E -797.917571167812
  C       3.175794      0.937012     -0.350150
  C       2.267411      0.023053      0.432299
  O       0.940015      0.119719     -0.136523
  P      -0.265940     -0.752981      0.428340
  O      -0.225631     -1.091962      1.869698
  C      -0.144389     -2.282550     -0.545635
  N      -0.069515     -3.257498     -1.163782
  N      -1.576991     -0.029869     -0.278175
  C      -1.645447      1.431830     -0.340245
  C      -2.866838     -0.692824     -0.096637
  H       3.219221      0.634589     -1.405806
  H       4.191035      0.885928      0.068554
  H       2.828445      1.978170     -0.289746
  H       2.210636      0.305617      1.493471
  H       2.599894     -1.025419      0.372898
  H      -2.367209      1.706947     -1.122631
  H      -0.665006      1.839732     -0.609448
  H      -1.978268      1.875888      0.612728
  H      -2.754679     -1.782538     -0.192012
  H      -3.548774     -0.355348     -0.890135
  H      -3.323766     -0.467496      0.881219
21
Coordinates from ORCA-job opt E -797.917817682542
  C       3.164441      0.964392     -0.323451
  C       2.272644      0.012687      0.432487
  O       0.945244      0.099457     -0.136206
  P      -0.260154     -0.778117      0.419629
  O      -0.204895     -1.153872      1.851024
  C      -0.162616     -2.291232     -0.588535
  N      -0.102208     -3.255700     -1.224743
  N      -1.575872     -0.034867     -0.253830
  C      -1.629150      1.420694     -0.383184
  C      -2.871658     -0.675678     -0.047971
  H       3.213387      0.692300     -1.387016
  H       4.180499      0.919862      0.093860
  H       2.798655      1.996981     -0.233887
  H       2.208204      0.266514      1.500350
  H       2.623418     -1.027507      0.345796
  H      -2.338181      1.669376     -1.186072
  H      -0.641131      1.807971     -0.655392
  H      -1.971149      1.908250      0.544791
  H      -2.769800     -1.770179     -0.082932
  H      -3.549004     -0.376470     -0.860725
  H      -3.330674     -0.394862      0.914289
21
Coordinates from ORCA-job opt E -797.918247225909
  C       3.143552      1.011154     -0.265998
  C       2.279046     -0.015336      0.421419
  O       0.950830      0.073238     -0.141078
  P      -0.254393     -0.811933      0.398318
  O      -0.179967     -1.250081      1.812005
  C      -0.186495     -2.298618     -0.656864
  N      -0.143701     -3.247959     -1.316724
  N      -1.574228     -0.036948     -0.213082
  C      -1.604975      1.398837     -0.466932
  C      -2.875384     -0.644092      0.043334
  H       3.195162      0.817457     -1.346691
  H       4.162326      0.965159      0.144354
  H       2.749808      2.024549     -0.103481
  H       2.209582      0.165228      1.503800
  H       2.659088     -1.036615      0.263826
  H      -2.295766      1.593521     -1.300781
  H      -0.607612      1.754024     -0.748724
  H      -1.956445      1.962641      0.413228
  H      -2.786919     -1.737119      0.129302
  H      -3.549035     -0.429521     -0.799282
  H      -3.334474     -0.257587      0.968333
21
Coordinates from ORCA-job opt E -797.918655722556
  C       3.122959      1.055501     -0.190127
  C       2.284000     -0.053392      0.394816
  O       0.952281      0.059405     -0.151210
  P      -0.252719     -0.834344      0.370734
  O      -0.167655     -1.332072      1.765766
  C      -0.196620     -2.296007     -0.721460
  N      -0.160988     -3.233211     -1.398610
  N      -1.573926     -0.031470     -0.174222
  C      -1.589809      1.369693     -0.567216
  C      -2.875067     -0.605570      0.147124
  H       3.171545      0.972646     -1.285397
  H       4.145304      0.993157      0.208958
  H       2.706451      2.038854      0.071964
  H       2.218966      0.020630      1.490056
  H       2.687536     -1.044788      0.135883
  H      -2.275365      1.496683     -1.418829
  H      -0.589216      1.692154     -0.875336
  H      -1.935251      2.014680      0.258121
  H      -2.791759     -1.679709      0.368226
  H      -3.552909     -0.493717     -0.712583
  H      -3.327758     -0.109121      1.021624
21
Coordinates from ORCA-job opt E -797.919213752341
  C       3.112669      1.084399     -0.105910
  C       2.290718     -0.098413      0.344411
  O       0.946555      0.074169     -0.151504
  P      -0.256497     -0.829449      0.356284
  O      -0.174396     -1.368548      1.737840
  C      -0.182755     -2.275684     -0.753626
  N      -0.137221     -3.208561     -1.435874
  N      -1.578852     -0.012900     -0.135994
  C      -1.596031      1.339950     -0.667948
  C      -2.873848     -0.568367      0.240282
  H       3.133143      1.152129     -1.203491
  H       4.145155      0.975836      0.255466
  H       2.698978      2.021105      0.295667
  H       2.254654     -0.170786      1.441246
  H       2.693873     -1.042597     -0.055208
  H      -2.277783      1.387099     -1.531066
  H      -0.595722      1.637611     -1.000924
  H      -1.941065      2.058833      0.094171
  H      -2.776041     -1.605778      0.591122
  H      -3.551013     -0.570270     -0.627820
  H      -3.334521      0.020223      1.051157
21
Coordinates from ORCA-job opt E -797.919777486446
  C       3.107668      1.099076     -0.017527
  C       2.292279     -0.137096      0.274870
  O       0.932493      0.108077     -0.143076
  P      -0.263171     -0.812755      0.352276
  O      -0.193504     -1.378905      1.724867
  C      -0.143455     -2.245400     -0.767123
  N      -0.071702     -3.176472     -1.449227
  N      -1.588319      0.008994     -0.099071
  C      -1.609406      1.301822     -0.763952
  C      -2.877778     -0.527570      0.326185
  H       3.090284      1.336058     -1.091761
  H       4.151350      0.934049      0.286073
  H       2.714353      1.964215      0.536865
  H       2.295738     -0.377227      1.348392
  H       2.676975     -1.008905     -0.279568
  H      -2.286392      1.265445     -1.631585
  H      -0.609067      1.573558     -1.118488
  H      -1.957251      2.087079     -0.072045
  H      -2.761049     -1.513312      0.797330
  H      -3.548424     -0.640673     -0.540087
  H      -3.351622      0.139942      1.064933
21
Coordinates from ORCA-job opt E -797.920387884605
  C       3.111831      1.096291      0.066381
  C       2.286818     -0.160197      0.201818
  O       0.912196      0.161357     -0.108027
  P      -0.271325     -0.788519      0.365070
  O      -0.225271     -1.380340      1.727692
  C      -0.080938     -2.195180     -0.771489
  N       0.031662     -3.118158     -1.458896
  N      -1.603263      0.031720     -0.059768
  C      -1.628366      1.251872     -0.853907
  C      -2.888895     -0.485024      0.403384
  H       3.048361      1.500303     -0.955065
  H       4.165107      0.870223      0.286537
  H       2.763704      1.867881      0.769167
  H       2.337249     -0.570083      1.221955
  H       2.627705     -0.936975     -0.502983
  H      -2.302732      1.129343     -1.715843
  H      -0.627734      1.492510     -1.228310
  H      -1.979412      2.096965     -0.239044
  H      -2.749504     -1.409953      0.978425
  H      -3.546259     -0.700641     -0.453685
  H      -3.380936      0.246609      1.064869
21
Coordinates from ORCA-job opt E -797.920929219510
  C       3.131933      1.073869      0.205506
  C       2.281792     -0.168787      0.107741
  O       0.900744      0.231110     -0.057975
  P      -0.274804     -0.752411      0.367478
  O      -0.260526     -1.400530      1.704333
  C      -0.015039     -2.108660     -0.812404
  N       0.137037     -3.010906     -1.519611
  N      -1.612320      0.076213     -0.013527
  C      -1.680208      1.152864     -0.993700
  C      -2.881211     -0.405537      0.526554
  H       3.029743      1.692901     -0.698250
  H       4.187903      0.786293      0.312412
  H       2.841320      1.676848      1.078388
  H       2.370542     -0.794123      1.009677
  H       2.566749     -0.776941     -0.767018
  H      -2.367157      0.885472     -1.812200
  H      -0.691743      1.354271     -1.418140
  H      -2.038613      2.073819     -0.506086
  H      -2.699836     -1.210879      1.249330
  H      -3.527357     -0.784313     -0.281382
  H      -3.398948      0.409428      1.057155
21
Coordinates from ORCA-job opt E -797.920313155448
  C       3.137628      1.089506      0.241465
  C       2.283551     -0.141277      0.099406
  O       0.885919      0.266339      0.084960
  P      -0.259569     -0.788204      0.438918
  O      -0.270606     -1.462417      1.751167
  C       0.043611     -2.034920     -0.853762
  N       0.218485     -2.873162     -1.633412
  N      -1.638959      0.035686      0.019603
  C      -1.660810      1.041801     -1.049694
  C      -2.935251     -0.340313      0.567260
  H       2.968325      1.779704     -0.594989
  H       4.194524      0.785654      0.231056
  H       2.937704      1.598847      1.192920
  H       2.433848     -0.845644      0.932773
  H       2.474613     -0.673178     -0.843584
  H      -2.432132      0.764559     -1.784633
  H      -0.682475      1.086017     -1.534993
  H      -1.915379      2.032047     -0.642751
  H      -2.772169     -1.156611      1.280728
  H      -3.602077     -0.675768     -0.241903
  H      -3.408781      0.511333      1.077747
21
Coordinates from ORCA-job opt E -797.921921730381
  C       3.136339      1.087727      0.259965
  C       2.294834     -0.154768      0.118260
  O       0.902975      0.243107      0.023877
  P      -0.263624     -0.780945      0.381409
  O      -0.260716     -1.477319      1.688167
  C      -0.005200     -2.053745     -0.897843
  N       0.143872     -2.905121     -1.667240
  N      -1.617344      0.059798      0.003356
  C      -1.686984      1.056966     -1.060323
  C      -2.891269     -0.340696      0.589309
  H       2.997568      1.754009     -0.603096
  H       4.196558      0.800136      0.308314
  H       2.881513      1.630964      1.180627
  H       2.414595     -0.829450      0.980209
  H       2.545014     -0.711406     -0.798024
  H      -2.429227      0.749475     -1.813779
  H      -0.709919      1.168449     -1.542220
  H      -1.991062      2.030472     -0.645031
  H      -2.715654     -1.114577      1.346679
  H      -3.566760     -0.735060     -0.186842
  H      -3.375510      0.521987      1.072510
21
Coordinates from ORCA-job opt E -797.922224646947
  C       3.136769      1.086985      0.292692
  C       2.300584     -0.157141      0.127707
  O       0.910652      0.237241      0.025596
  P      -0.262910     -0.786140      0.354817
  O      -0.257828     -1.515092      1.645034
  C      -0.020584     -2.032781     -0.956476
  N       0.118478     -2.867715     -1.745228
  N      -1.608392      0.068318      0.004548
  C      -1.703865      1.022722     -1.092330
  C      -2.870344     -0.311087      0.629770
  H       3.000505      1.764551     -0.562360
  H       4.198501      0.806125      0.345971
  H       2.869889      1.619250      1.216710
  H       2.415442     -0.839943      0.983646
  H       2.565754     -0.701591     -0.792265
  H      -2.437227      0.673800     -1.836747
  H      -0.730671      1.144504     -1.582072
  H      -2.030109      2.002898     -0.710460
  H      -2.685759     -1.038430      1.429450
  H      -3.557836     -0.752701     -0.110265
  H      -3.351049      0.576226      1.070545
21
Coordinates from ORCA-job opt E -797.922409930514
  C       3.131504      1.092735      0.297650
  C       2.303828     -0.159953      0.149154
  O       0.914586      0.224261      0.036852
  P      -0.262537     -0.801677      0.339493
  O      -0.248361     -1.551745      1.618394
  C      -0.036539     -2.020101     -1.003863
  N       0.092838     -2.835327     -1.814291
  N      -1.605442      0.058399      0.002554
  C      -1.701874      1.001202     -1.102703
  C      -2.863061     -0.294518      0.651535
  H       2.991649      1.756500     -0.567957
  H       4.195719      0.823743      0.359788
  H       2.854971      1.639014      1.210889
  H       2.419130     -0.824859      1.018702
  H       2.581200     -0.719145     -0.758902
  H      -2.419455      0.637282     -1.855898
  H      -0.725208      1.135099     -1.584483
  H      -2.046126      1.980636     -0.734914
  H      -2.683223     -1.006064      1.466119
  H      -3.567322     -0.744728     -0.067654
  H      -3.326276      0.609246      1.077816
21
Coordinates from ORCA-job opt E -797.922520119533
  C       3.133068      1.089734      0.316610
  C       2.301846     -0.159609      0.158028
  O       0.912919      0.227460      0.072764
  P      -0.264524     -0.810102      0.332664
  O      -0.254695     -1.589339      1.593949
  C      -0.023821     -1.981915     -1.049444
  N       0.113883     -2.768595     -1.886258
  N      -1.609978      0.052928      0.007354
  C      -1.709986      0.957443     -1.129814
  C      -2.861308     -0.263035      0.685256
  H       2.981730      1.768055     -0.535720
  H       4.198000      0.820366      0.360982
  H       2.867912      1.621411      1.241824
  H       2.427591     -0.838177      1.015698
  H       2.568549     -0.704606     -0.761990
  H      -2.417486      0.562600     -1.877514
  H      -0.731578      1.087951     -1.609034
  H      -2.067177      1.944404     -0.796694
  H      -2.675846     -0.944369      1.523868
  H      -3.579728     -0.734228     -0.005912
  H      -3.309370      0.661622      1.081664
21
Coordinates from ORCA-job opt E -797.922569294923
  C       3.129317      1.092764      0.295782
  C       2.298743     -0.161568      0.179221
  O       0.909823      0.221794      0.089488
  P      -0.267510     -0.819916      0.334886
  O      -0.256159     -1.606872      1.591237
  C      -0.021587     -1.973012     -1.060526
  N       0.119715     -2.746541     -1.908943
  N      -1.615528      0.039012      0.005427
  C      -1.699505      0.958592     -1.121054
  C      -2.868448     -0.267016      0.682916
  H       2.975085      1.743727     -0.577078
  H       4.194635      0.826299      0.346673
  H       2.865234      1.653286      1.204111
  H       2.428540     -0.813799      1.056560
  H       2.563056     -0.734467     -0.724475
  H      -2.395265      0.574977     -1.885564
  H      -0.713891      1.096345     -1.582730
  H      -2.060273      1.941220     -0.779237
  H      -2.689156     -0.962954      1.511187
  H      -3.593913     -0.719967     -0.012719
  H      -3.302914      0.658096      1.093120
21
Coordinates from ORCA-job opt E -797.922608458678
  C       3.129253      1.091658      0.278557
  C       2.295232     -0.163179      0.201310
  O       0.906732      0.221134      0.108188
  P      -0.271025     -0.825389      0.335068
  O      -0.265941     -1.625086      1.583066
  C      -0.010323     -1.957413     -1.073074
  N       0.140110     -2.717008     -1.932550
  N      -1.620789      0.031297      0.004294
  C      -1.697463      0.957944     -1.117397
  C      -2.873189     -0.268717      0.684140
  H       2.975463      1.716455     -0.613158
  H       4.193749      0.823265      0.335685
  H       2.868579      1.679577      1.170340
  H       2.427422     -0.792672      1.094772
  H       2.553753     -0.761115     -0.687754
  H      -2.386348      0.579296     -1.890409
  H      -0.707804      1.101171     -1.568072
  H      -2.061323      1.937520     -0.770165
  H      -2.693599     -0.975156      1.503567
  H      -3.603977     -0.709085     -0.013745
  H      -3.298513      0.655504      1.105621
21
Coordinates from ORCA-job opt E -797.922642844813
  C       3.130732      1.087878      0.252718
  C       2.291424     -0.165450      0.236755
  O       0.904008      0.220470      0.129651
  P      -0.274962     -0.831088      0.331734
  O      -0.280648     -1.649969      1.566942
  C       0.005226     -1.937113     -1.091860
  N       0.167662     -2.678782     -1.964775
  N      -1.625350      0.024625      0.001691
  C      -1.699079      0.963054     -1.110663
  C      -2.876323     -0.274490      0.684338
  H       2.982539      1.667327     -0.669886
  H       4.193559      0.816800      0.326087
  H       2.871226      1.720699      1.113529
  H       2.422342     -0.755146      1.157002
  H       2.545308     -0.804643     -0.624688
  H      -2.381431      0.590770     -1.892230
  H      -0.706527      1.116885     -1.551064
  H      -2.068540      1.936681     -0.752683
  H      -2.695178     -0.996037      1.490158
  H      -3.613087     -0.698209     -0.017368
  H      -3.292901      0.645738      1.122894
21
Coordinates from ORCA-job opt E -797.922653366128
  C       3.133230      1.085357      0.251477
  C       2.290701     -0.165848      0.239526
  O       0.903591      0.223578      0.135496
  P      -0.275629     -0.829018      0.331761
  O      -0.287664     -1.652448      1.563965
  C       0.012069     -1.932559     -1.092803
  N       0.178826     -2.672279     -1.966509
  N      -1.624694      0.028067      0.002528
  C      -1.703329      0.963772     -1.111648
  C      -2.875468     -0.274742      0.685176
  H       2.986136      1.662639     -0.672675
  H       4.195322      0.811162      0.324485
  H       2.876582      1.720844      1.111171
  H       2.421964     -0.754397      1.160341
  H       2.540873     -0.807120     -0.621574
  H      -2.387145      0.587712     -1.890054
  H      -0.712150      1.118858     -1.555145
  H      -2.074551      1.937175     -0.754876
  H      -2.692688     -0.994798      1.491751
  H      -3.610950     -0.700697     -0.016621
  H      -3.295028      0.644742      1.122509
21
Coordinates from ORCA-job opt E -797.922663977395
  C       3.134204      1.084380      0.241114
  C       2.290786     -0.166361      0.249511
  O       0.903994      0.222810      0.137870
  P      -0.275535     -0.829699      0.331311
  O      -0.290662     -1.655691      1.561958
  C       0.012926     -1.934311     -1.093742
  N       0.179891     -2.673094     -1.968138
  N      -1.622611      0.029280      0.002184
  C      -1.703424      0.973467     -1.104041
  C      -2.874970     -0.281871      0.679364
  H       2.990739      1.644549     -0.694112
  H       4.195884      0.810806      0.322481
  H       2.875481      1.735561      1.088374
  H       2.419682     -0.738206      1.180991
  H       2.542082     -0.822982     -0.599725
  H      -2.388491      0.601998     -1.883584
  H      -0.713222      1.132078     -1.548925
  H      -2.075555      1.943996     -0.740328
  H      -2.695452     -1.008105      1.480957
  H      -3.608611     -0.702316     -0.027789
  H      -3.297137      0.633712      1.122551
21
Coordinates from ORCA-job opt E -797.922665057866
  C       3.134273      1.083856      0.238309
  C       2.290469     -0.166601      0.252598
  O       0.903536      0.222952      0.144461
  P      -0.275736     -0.830642      0.332684
  O      -0.292690     -1.659857      1.561150
  C       0.014984     -1.931287     -1.095511
  N       0.182927     -2.666928     -1.972362
  N      -1.622278      0.029515      0.003841
  C      -1.702728      0.973323     -1.102639
  C      -2.875720     -0.282138      0.678816
  H       2.989055      1.641012     -0.698459
  H       4.196090      0.810457      0.318456
  H       2.877430      1.737800      1.084002
  H       2.421670     -0.735204      1.185761
  H       2.539365     -0.826025     -0.595186
  H      -2.388232      0.601693     -1.881809
  H      -0.712701      1.130779     -1.548365
  H      -2.074564      1.944314     -0.739919
  H      -2.698059     -1.007628      1.481448
  H      -3.608107     -0.703149     -0.029339
  H      -3.298986      0.633759      1.120345
21
Coordinates from ORCA-job opt E -797.922668470834
  C       3.134091      1.083451      0.232553
  C       2.289998     -0.166696      0.256184
  O       0.902863      0.222867      0.152038
  P      -0.276142     -0.831597      0.335813
  O      -0.294598     -1.663215      1.562615
  C       0.016489     -1.929190     -1.094597
  N       0.184853     -2.662030     -1.973726
  N      -1.622156      0.029624      0.006357
  C      -1.699953      0.975603     -1.098452
  C      -2.877918     -0.284694      0.675493
  H       2.986271      1.635677     -0.706731
  H       4.196145      0.810596      0.311257
  H       2.879641      1.741933      1.075439
  H       2.424578     -0.729999      1.192105
  H       2.535672     -0.830718     -0.588919
  H      -2.385789      0.606557     -1.878619
  H      -0.709623      1.131278     -1.544039
  H      -2.070261      1.946864     -0.734932
  H      -2.703213     -1.010891      1.478168
  H      -3.606987     -0.705626     -0.036141
  H      -3.303961      0.630204      1.116419
21
Coordinates from ORCA-job opt E -797.922674142737
  C       3.133998      1.083108      0.227863
  C       2.289701     -0.166729      0.258979
  O       0.902515      0.222688      0.156342
  P      -0.276578     -0.831940      0.337960
  O      -0.295896     -1.664890      1.563817
  C       0.016889     -1.927971     -1.093302
  N       0.184974     -2.659228     -1.973811
  N      -1.622196      0.029994      0.008235
  C      -1.697689      0.978116     -1.094959
  C      -2.879631     -0.287271      0.672580
  H       2.984812      1.630939     -0.713774
  H       4.196144      0.810600      0.306345
  H       2.880809      1.745670      1.067930
  H       2.426334     -0.725631      1.197250
  H       2.533412     -0.834731     -0.583538
  H      -2.383176      0.611338     -1.876505
  H      -0.706845      1.133197     -1.539525
  H      -2.067132      1.949227     -0.730154
  H      -2.706271     -1.014149      1.474985
  H      -3.605646     -0.708626     -0.041914
  H      -3.308528      0.626286      1.113477
21
Coordinates from ORCA-job opt E -797.922675630542
  C       3.134095      1.082839      0.224434
  C       2.289682     -0.166750      0.261178
  O       0.902542      0.222387      0.158197
  P      -0.276895     -0.831897      0.339153
  O      -0.296596     -1.665594      1.564472
  C       0.016235     -1.927271     -1.092363
  N       0.183129     -2.657607     -1.973867
  N      -1.622122      0.030839      0.009816
  C      -1.696100      0.980482     -1.092273
  C      -2.880700     -0.289580      0.670351
  H       2.984677      1.626851     -0.719378
  H       4.196226      0.810559      0.303777
  H       2.881147      1.748949      1.061767
  H       2.427208     -0.722049      1.201453
  H       2.532559     -0.838128     -0.578900
  H      -2.380816      0.615021     -1.875085
  H      -0.704742      1.135870     -1.535534
  H      -2.065484      1.951221     -0.726406
  H      -2.707500     -1.016546      1.472759
  H      -3.603889     -0.712235     -0.046235
  H      -3.312656      0.622638      1.110966
21
Coordinates from ORCA-job opt E -797.922674268777
  C       3.134354      1.082566      0.222414
  C       2.289790     -0.166787      0.262959
  O       0.902767      0.222129      0.158490
  P      -0.277034     -0.831735      0.339366
  O      -0.296853     -1.665970      1.564319
  C       0.015369     -1.926620     -1.092433
  N       0.180768     -2.656154     -1.974880
  N      -1.621970      0.031765      0.010902
  C      -1.695436      0.982036     -1.090772
  C      -2.881069     -0.291105      0.669310
  H       2.985598      1.623439     -0.723304
  H       4.196378      0.810338      0.303336
  H       2.880977      1.751577      1.057307
  H       2.427184     -0.719340      1.204856
  H       2.532705     -0.840846     -0.574992
  H      -2.378997      0.616613     -1.874586
  H      -0.703641      1.138584     -1.532641
  H      -2.065790      1.952231     -0.724448
  H      -2.707362     -1.017753      1.471912
  H      -3.602409     -0.715173     -0.048312
  H      -3.315329      0.620208      1.109478
