28
Coordinates from ORCA-job opt E -901.736006304319
  C          -2.02538864827374      2.48662844333114     -0.52001879925311
  C          -2.01587680301153      0.96385811119518     -0.50218629028561
  N          -0.70789477116359      0.40923693532775     -0.13937034175643
  C          -0.48833298659689      0.22581219895580      1.29635261565819
  C          -0.92605331856157     -1.15471657587934      1.76974530738466
  C           0.20135783883431      0.03941457712000     -1.05505491365177
  C          -0.18479419587921      0.15519668978683     -2.51190234091923
  N           1.37918577838222     -0.45757366534104     -0.80010109789625
  P           2.59172605133891     -0.48379492538289      0.25233747185020
  C           2.76257347461052     -2.13947090628772      0.91841415073487
  O           2.76028481350366      0.61970661684071      1.25059463265627
  F           3.88076892889182     -0.45757223483911     -0.72997855727857
  H          -1.33256417611267      2.88061481703942     -1.27872294243418
  H          -1.72977668972188      2.89620948795020      0.45775792415127
  H          -3.03540011468991      2.85434717591098     -0.75263964920350
  H          -2.33697559820536      0.56067532226578     -1.46970949667729
  H          -2.74059086233168      0.58799069054295      0.23534829628746
  H           0.56390001361742      0.42286517672403      1.53365060573088
  H          -1.06402857521369      1.00688514684307      1.81412996715344
  H          -2.00159540579903     -1.31320580244030      1.59776269778116
  H          -0.73307718268766     -1.26614324585519      2.84680303940102
  H          -0.37771571960263     -1.94706305033974      1.23841030593795
  H          -0.50452833766028      1.17561821235017     -2.76553693413236
  H          -1.01304601029633     -0.52841574580434     -2.75212950690697
  H           0.68366731878412     -0.11115717198763     -3.12220932684322
  H           2.68046656189998     -2.88438628261990      0.11608246952192
  H           3.74104475398584     -2.22701518431496      1.41055672070515
  H           1.97266387195886     -2.31454484109186      1.66161397228406
