28
Coordinates from ORCA-job opt E -901.708164921454
  C      -0.986089      2.547760     -0.247511
  C      -1.714635      1.214144     -0.313929
  N      -0.784329      0.102578     -0.091089
  C      -0.702517     -0.410462      1.275305
  C      -1.845172     -1.381253      1.540787
  C       0.109333     -0.266013     -1.077307
  C      -0.494478     -0.655939     -2.417048
  N       1.394572     -0.295409     -1.038897
  P       2.409721      0.161086      0.102637
  C       3.166076     -1.344562      0.714503
  O       1.917392      1.026301      1.230226
  F       3.493889      0.985886     -0.691930
  H      -0.204850      2.612945     -1.011871
  H      -0.512911      2.690480      0.729341
  H      -1.688320      3.371494     -0.409031
  H      -2.206726      1.111806     -1.287362
  H      -2.514886      1.206369      0.434853
  H       0.231930     -0.954439      1.437255
  H      -0.732184      0.411309      1.999593
  H      -2.819788     -0.891655      1.450725
  H      -1.765627     -1.792070      2.552134
  H      -1.822851     -2.214519      0.830339
  H      -0.588091      0.237208     -3.041456
  H      -1.481604     -1.104818     -2.274803
  H       0.149315     -1.378920     -2.926862
  H       3.605959     -1.910725     -0.111077
  H       3.959113     -1.102701      1.427159
  H       2.427759     -1.975878      1.215314
28
Coordinates from ORCA-job opt E -901.718541287163
  C      -1.125902      2.563887     -0.322442
  C      -1.755347      1.174431     -0.351365
  N      -0.773102      0.122486     -0.099235
  C      -0.652040     -0.363450      1.272661
  C      -1.748947     -1.376202      1.593463
  C       0.112540     -0.223131     -1.088016
  C      -0.494904     -0.521152     -2.446076
  N       1.400882     -0.307927     -1.006258
  P       2.437400      0.083597      0.174035
  C       3.151308     -1.452147      0.759121
  O       2.022104      0.993970      1.292750
  F       3.589180      0.806152     -0.643851
  H      -0.350666      2.665923     -1.096838
  H      -0.657157      2.764746      0.651461
  H      -1.890597      3.334560     -0.501973
  H      -2.246008      1.006957     -1.323433
  H      -2.549978      1.111559      0.404969
  H       0.318350     -0.852154      1.416405
  H      -0.690995      0.479757      1.979182
  H      -2.751925     -0.929988      1.515300
  H      -1.627494     -1.756356      2.618855
  H      -1.703558     -2.231709      0.903267
  H      -0.548304      0.405905     -3.037587
  H      -1.505538     -0.937339     -2.340776
  H       0.138919     -1.236776     -2.981736
  H       3.553092     -2.039810     -0.078399
  H       3.966459     -1.241550      1.465257
  H       2.382227     -2.044238      1.271258
28
Coordinates from ORCA-job opt E -901.723852964840
  C      -1.222677      2.543774     -0.342805
  C      -1.787175      1.126738     -0.366248
  N      -0.765283      0.122235     -0.097983
  C      -0.641681     -0.348488      1.278020
  C      -1.725095     -1.369535      1.614807
  C       0.114404     -0.201478     -1.091157
  C      -0.484159     -0.400294     -2.465108
  N       1.401505     -0.343162     -0.987745
  P       2.489328      0.039568      0.179344
  C       3.156718     -1.496252      0.813810
  O       2.189813      1.064498      1.227029
  F       3.688606      0.578777     -0.733025
  H      -0.451923      2.676559     -1.119871
  H      -0.762024      2.769289      0.632561
  H      -2.022049      3.278418     -0.526005
  H      -2.269080      0.925064     -1.336242
  H      -2.575259      1.013406      0.393057
  H       0.339982     -0.806816      1.422343
  H      -0.684985      0.507875      1.970864
  H      -2.736036     -0.939090      1.529195
  H      -1.598383     -1.727847      2.648489
  H      -1.662758     -2.238147      0.940362
  H      -0.496844      0.553600     -3.018648
  H      -1.510742     -0.785759     -2.404149
  H       0.147686     -1.101518     -3.023348
  H       3.485713     -2.153103     -0.004175
  H       4.009980     -1.282975      1.474263
  H       2.372418     -2.005335      1.392364
28
Coordinates from ORCA-job opt E -901.726936013974
  C      -1.434948      2.510685     -0.430454
  C      -1.867707      1.050529     -0.391211
  N      -0.745001      0.155194     -0.118163
  C      -0.549489     -0.235740      1.273563
  C      -1.543779     -1.307931      1.700414
  C       0.135035     -0.134317     -1.115612
  C      -0.413684     -0.201925     -2.519423
  N       1.402658     -0.375205     -0.968288
  P       2.479258     -0.089657      0.251283
  C       3.075414     -1.668304      0.850532
  O       2.220452      0.948526      1.289520
  F       3.746334      0.356133     -0.643599
  H      -0.712597      2.685770     -1.243936
  H      -0.956760      2.805815      0.517283
  H      -2.303330      3.164454     -0.598785
  H      -2.361081      0.769159     -1.331864
  H      -2.613634      0.884425      0.400312
  H       0.471106     -0.606245      1.401754
  H      -0.625521      0.654602      1.919794
  H      -2.584357     -0.957157      1.623411
  H      -1.362349     -1.591187      2.748023
  H      -1.433138     -2.207853      1.076284
  H      -0.369179      0.785895     -3.005995
  H      -1.452252     -0.554021     -2.540541
  H       0.230904     -0.874502     -3.098204
  H       3.376623     -2.317160      0.018399
  H       3.928456     -1.499511      1.522220
  H       2.262563     -2.150473      1.413287
28
Coordinates from ORCA-job opt E -901.728804602895
  C      -1.594527      2.478940     -0.419906
  C      -1.903470      0.987753     -0.391257
  N      -0.706920      0.181633     -0.118412
  C      -0.517781     -0.197994      1.278582
  C      -1.489864     -1.289431      1.703600
  C       0.179542     -0.082775     -1.115563
  C      -0.347411     -0.064101     -2.529008
  N       1.432697     -0.409228     -0.983125
  P       2.581207     -0.145265      0.173695
  C       2.996789     -1.713425      0.934233
  O       2.507012      1.036376      1.076159
  F       3.868685      0.004374     -0.800909
  H      -0.897243      2.720289     -1.237026
  H      -1.134854      2.804034      0.525812
  H      -2.515552      3.060294     -0.574770
  H      -2.373932      0.670904     -1.330514
  H      -2.634390      0.757631      0.397374
  H       0.507396     -0.540820      1.426293
  H      -0.620245      0.696740      1.914656
  H      -2.537575     -0.968773      1.604715
  H      -1.318463     -1.550526      2.758433
  H      -1.343454     -2.194777      1.095562
  H      -0.300619      0.952125     -2.951510
  H      -1.380814     -0.422402     -2.601037
  H       0.318557     -0.689948     -3.134569
  H       3.172595     -2.478930      0.168739
  H       3.893832     -1.579289      1.553976
  H       2.158803     -2.023410      1.575776
28
Coordinates from ORCA-job opt E -901.730357720675
  C      -1.688921      2.461267     -0.472561
  C      -1.934642      0.959401     -0.405853
  N      -0.705408      0.207959     -0.111732
  C      -0.523294     -0.122386      1.300501
  C      -1.441047     -1.252231      1.747499
  C       0.190288     -0.070676     -1.091112
  C      -0.300653      0.020069     -2.517293
  N       1.435418     -0.438452     -0.960069
  P       2.601723     -0.221624      0.174705
  C       3.000541     -1.807552      0.912188
  O       2.550709      0.946045      1.097995
  F       3.886582     -0.064385     -0.803266
  H      -1.004709      2.713236     -1.296612
  H      -1.244413      2.829897      0.463938
  H      -2.634594      2.997739     -0.638720
  H      -2.390463      0.597880     -1.335126
  H      -2.658011      0.726926      0.387080
  H       0.511440     -0.408550      1.482788
  H      -0.683954      0.784959      1.904517
  H      -2.503258     -0.998195      1.619893
  H      -1.274815     -1.464833      2.813673
  H      -1.231900     -2.168590      1.175738
  H      -0.272562      1.063152     -2.869484
  H      -1.319405     -0.362039     -2.647564
  H       0.397396     -0.549048     -3.140734
  H       3.154766     -2.559084      0.127996
  H       3.909747     -1.696550      1.518715
  H       2.173440     -2.124337      1.562902
28
Coordinates from ORCA-job opt E -901.732546849408
  C      -1.872068      2.438885     -0.521668
  C      -1.977713      0.921926     -0.423546
  N      -0.684758      0.283515     -0.128156
  C      -0.480877      0.026220      1.298836
  C      -1.211357     -1.221664      1.780298
  C       0.214102     -0.010038     -1.082232
  C      -0.222190      0.160693     -2.524968
  N       1.432293     -0.467008     -0.941721
  P       2.612947     -0.354143      0.158564
  C       2.850340     -1.951057      0.945790
  O       2.660455      0.829109      1.067669
  F       3.922241     -0.312971     -0.795976
  H      -1.226890      2.744326     -1.357308
  H      -1.459081      2.866057      0.404048
  H      -2.867055      2.877536     -0.682133
  H      -2.409579      0.496803     -1.335817
  H      -2.670395      0.655879      0.383615
  H       0.580610     -0.085469      1.519246
  H      -0.800310      0.917433      1.859346
  H      -2.297828     -1.159993      1.624953
  H      -1.035895     -1.357506      2.856836
  H      -0.838771     -2.113135      1.254601
  H      -0.263210      1.231308     -2.775464
  H      -1.199815     -0.282424     -2.748248
  H       0.537929     -0.303752     -3.159407
  H       2.934902     -2.724903      0.171632
  H       3.768610     -1.917960      1.547899
  H       2.003366     -2.187668      1.603313
28
Coordinates from ORCA-job opt E -901.733781346293
  C      -1.985641      2.431266     -0.548486
  C      -1.998586      0.910950     -0.451243
  N      -0.677041      0.348309     -0.136433
  C      -0.468817      0.143903      1.299088
  C      -1.017846     -1.190511      1.789361
  C       0.221253      0.030261     -1.072450
  C      -0.187212      0.233779     -2.519981
  N       1.416003     -0.483326     -0.909637
  P       2.602123     -0.450951      0.172515
  C       2.752661     -2.059913      0.957284
  O       2.720310      0.722888      1.092049
  F       3.917301     -0.477111     -0.772221
  H      -1.351414      2.781882     -1.374559
  H      -1.615710      2.881778      0.384602
  H      -3.005272      2.803920     -0.720444
  H      -2.390313      0.456548     -1.368726
  H      -2.683052      0.605512      0.350019
  H       0.591729      0.208077      1.548762
  H      -0.939988      0.986249      1.826045
  H      -2.096099     -1.298982      1.601177
  H      -0.856682     -1.276942      2.873222
  H      -0.497760     -2.025333      1.296313
  H      -0.280677      1.310196     -2.726625
  H      -1.138522     -0.246531     -2.783443
  H       0.604369     -0.173674     -3.154412
  H       2.791805     -2.832670      0.177845
  H       3.675474     -2.084262      1.553031
  H       1.897605     -2.255313      1.617348
28
Coordinates from ORCA-job opt E -901.735078115284
  C      -1.968979      2.471529     -0.524114
  C      -1.994526      0.949347     -0.476175
  N      -0.690184      0.364919     -0.146090
  C      -0.469681      0.163778      1.286788
  C      -0.961823     -1.197168      1.764783
  C       0.197608      0.011933     -1.079698
  C      -0.218784      0.175564     -2.527570
  N       1.389968     -0.488547     -0.876574
  P       2.569011     -0.454890      0.212153
  C       2.756160     -2.074785      0.961325
  O       2.670023      0.699350      1.162588
  F       3.888070     -0.441345     -0.722104
  H      -1.308933      2.845917     -1.320379
  H      -1.622400      2.887896      0.434330
  H      -2.982191      2.855609     -0.712258
  H      -2.364594      0.527287     -1.419683
  H      -2.697276      0.616803      0.301462
  H       0.591580      0.298663      1.528869
  H      -0.993588      0.976620      1.810574
  H      -2.037534     -1.340914      1.577677
  H      -0.790743     -1.293815      2.847081
  H      -0.416711     -2.006761      1.255970
  H      -0.376944      1.241394     -2.751080
  H      -1.147879     -0.359527     -2.769620
  H       0.587284     -0.204484     -3.162424
  H       2.804209     -2.837025      0.171409
  H       3.683112     -2.097334      1.551219
  H       1.905747     -2.290015      1.621542
28
Coordinates from ORCA-job opt E -901.735734432229
  C      -1.978128      2.495507     -0.506524
  C      -2.004685      0.973306     -0.494873
  N      -0.707903      0.383173     -0.144866
  C      -0.491407      0.188788      1.289626
  C      -0.940481     -1.190394      1.755597
  C       0.188196      0.015973     -1.074468
  C      -0.216931      0.143415     -2.524667
  N       1.372592     -0.486550     -0.841680
  P       2.570491     -0.467970      0.234640
  C       2.775802     -2.097302      0.954249
  O       2.711187      0.676360      1.192521
  F       3.868601     -0.466421     -0.731182
  H      -1.293949      2.884649     -1.275956
  H      -1.656185      2.889789      0.469759
  H      -2.985582      2.885282     -0.715159
  H      -2.348924      0.577686     -1.457420
  H      -2.725114      0.614231      0.255820
  H       0.560539      0.386932      1.532702
  H      -1.063364      0.974570      1.805489
  H      -2.013204     -1.353327      1.567890
  H      -0.763047     -1.298779      2.836089
  H      -0.382495     -1.981879      1.232439
  H      -0.455278      1.190358     -2.765816
  H      -1.101775     -0.463940     -2.762829
  H       0.622438     -0.182995     -3.147324
  H       2.784089     -2.857672      0.161453
  H       3.725233     -2.130654      1.506486
  H       1.949286     -2.302137      1.648006
28
Coordinates from ORCA-job opt E -901.735885507842
  C      -1.980038      2.500919     -0.501177
  C      -2.007089      0.978574     -0.497144
  N      -0.710881      0.388136     -0.144556
  C      -0.489955      0.190179      1.289553
  C      -0.929179     -1.194260      1.747889
  C       0.186595      0.015439     -1.071627
  C      -0.214503      0.136291     -2.523119
  N       1.369940     -0.482216     -0.833352
  P       2.573631     -0.465705      0.235156
  C       2.765394     -2.094860      0.958463
  O       2.726374      0.677586      1.191981
  F       3.866259     -0.469596     -0.738990
  H      -1.288377      2.889684     -1.263731
  H      -1.664440      2.892301      0.477910
  H      -2.984703      2.893350     -0.717029
  H      -2.343997      0.590853     -1.465413
  H      -2.734649      0.614057      0.243473
  H       0.560561      0.395161      1.530242
  H      -1.068529      0.966256      1.811800
  H      -2.003470     -1.352806      1.568175
  H      -0.741380     -1.314705      2.825031
  H      -0.378089     -1.981146      1.211068
  H      -0.483476      1.174200     -2.768709
  H      -1.080714     -0.499180     -2.758511
  H       0.634187     -0.168487     -3.143256
  H       2.748787     -2.860961      0.171880
  H       3.723132     -2.136888      1.495173
  H       1.948609     -2.282174      1.668823
28
Coordinates from ORCA-job opt E -901.735972061996
  C      -2.000211      2.496849     -0.503816
  C      -2.011532      0.974155     -0.497711
  N      -0.709065      0.400463     -0.142928
  C      -0.487168      0.203088      1.291436
  C      -0.918942     -1.184589      1.747229
  C       0.192695      0.026822     -1.064716
  C      -0.201567      0.145330     -2.518945
  N       1.371720     -0.475004     -0.821470
  P       2.582660     -0.473328      0.237219
  C       2.754834     -2.107502      0.954320
  O       2.751939      0.662345      1.198589
  F       3.869717     -0.481404     -0.747145
  H      -1.306310      2.886738     -1.263500
  H      -1.693266      2.895470      0.474897
  H      -3.006253      2.880341     -0.727749
  H      -2.339662      0.583783     -1.467932
  H      -2.739753      0.601203      0.237698
  H       0.561893      0.411302      1.532809
  H      -1.070997      0.972700      1.816726
  H      -1.994493     -1.339832      1.573368
  H      -0.724431     -1.311462      2.822173
  H      -0.372139     -1.969477      1.203442
  H      -0.494512      1.174468     -2.770643
  H      -1.050449     -0.513871     -2.754282
  H       0.656307     -0.141972     -3.134266
  H       2.698492     -2.874200      0.170658
  H       3.725368     -2.167961      1.465873
  H       1.955125     -2.274457      1.688670
28
Coordinates from ORCA-job opt E -901.735991394839
  C      -2.003288      2.495373     -0.505475
  C      -2.011397      0.972529     -0.498222
  N      -0.708352      0.402408     -0.142341
  C      -0.487743      0.205562      1.292010
  C      -0.928681     -1.178803      1.750599
  C       0.195106      0.029043     -1.062184
  C      -0.198686      0.144987     -2.517280
  N       1.373934     -0.471158     -0.816159
  P       2.586259     -0.473258      0.240137
  C       2.760916     -2.111934      0.946126
  O       2.752991      0.655029      1.209912
  F       3.873274     -0.469746     -0.745213
  H      -1.307373      2.884689     -1.263730
  H      -1.699625      2.895966      0.473533
  H      -3.009117      2.877297     -0.733065
  H      -2.337472      0.581060     -1.468847
  H      -2.739729      0.598233      0.236473
  H       0.563220      0.404459      1.532834
  H      -1.065398      0.979925      1.817353
  H      -2.005641     -1.326729      1.578333
  H      -0.734112     -1.305371      2.825606
  H      -0.387272     -1.968471      1.208362
  H      -0.502341      1.170222     -2.771921
  H      -1.040020     -0.524535     -2.751196
  H       0.662372     -0.135438     -3.131572
  H       2.690705     -2.875178      0.160174
  H       3.737465     -2.178237      1.445616
  H       1.970009     -2.277924      1.690137
28
Coordinates from ORCA-job opt E -901.736008255557
  C      -2.018134      2.490883     -0.511362
  C      -2.014049      0.967929     -0.500401
  N      -0.707288      0.408517     -0.142521
  C      -0.487370      0.218445      1.292481
  C      -0.921933     -1.166028      1.758399
  C       0.198683      0.035163     -1.059314
  C      -0.190237      0.153718     -2.515925
  N       1.375200     -0.467686     -0.807865
  P       2.588003     -0.482472      0.245593
  C       2.758517     -2.128253      0.935640
  O       2.757077      0.634830      1.227442
  F       3.876721     -0.471149     -0.738224
  H      -1.323357      2.883504     -1.269090
  H      -1.719918      2.896223      0.467447
  H      -3.026371      2.864489     -0.742275
  H      -2.336903      0.571313     -1.470055
  H      -2.739349      0.589991      0.235551
  H       0.563167      0.420730      1.533069
  H      -1.067818      0.993498      1.813937
  H      -1.997588     -1.322881      1.584974
  H      -0.729234     -1.284155      2.834799
  H      -0.372687     -1.955458      1.223581
  H      -0.508714      1.174789     -2.768852
  H      -1.019942     -0.528504     -2.755058
  H       0.677053     -0.113225     -3.127766
  H       2.670908     -2.885026      0.145070
  H       3.740475     -2.207146      1.422672
  H       1.975088     -2.292040      1.688055
28
Coordinates from ORCA-job opt E -901.736001076786
  C      -2.018567      2.490057     -0.514088
  C      -2.013995      0.967140     -0.500978
  N      -0.707323      0.407965     -0.141471
  C      -0.488268      0.219292      1.293730
  C      -0.927370     -1.162725      1.762323
  C       0.199570      0.036022     -1.058325
  C      -0.189550      0.153176     -2.514662
  N       1.376493     -0.465313     -0.806075
  P       2.588764     -0.482015      0.247777
  C       2.763138     -2.130945      0.929284
  O       2.754714      0.630741      1.235559
  F       3.878267     -0.463184     -0.734647
  H      -1.323844      2.882570     -1.271911
  H      -1.721151      2.896339      0.464554
  H      -3.026971      2.862714     -0.745803
  H      -2.336873      0.568759     -1.469942
  H      -2.739122      0.590497      0.235772
  H       0.563424      0.416479      1.533370
  H      -1.064673      0.998093      1.814162
  H      -2.003064     -1.318594      1.588685
  H      -0.735797     -1.278055      2.839256
  H      -0.378856     -1.954364      1.230072
  H      -0.508307      1.173957     -2.768098
  H      -1.019022     -0.529541     -2.753230
  H       0.677657     -0.114236     -3.126460
  H       2.677121     -2.883902      0.134898
  H       3.744798     -2.211345      1.416481
  H       1.978808     -2.299579      1.679766
28
Coordinates from ORCA-job opt E -901.736012292622
  C      -2.020595      2.488911     -0.516612
  C      -2.014663      0.966067     -0.501473
  N      -0.707620      0.408024     -0.140626
  C      -0.488434      0.221248      1.294733
  C      -0.926944     -1.160120      1.765208
  C       0.200016      0.037032     -1.057393
  C      -0.188030      0.154241     -2.513706
  N       1.377182     -0.463036     -0.804260
  P       2.589311     -0.482615      0.249362
  C       2.763224     -2.133854      0.925452
  O       2.755616      0.627075      1.240883
  F       3.878933     -0.461130     -0.732544
  H      -1.326591      2.881854     -1.274826
  H      -1.723747      2.896326      0.461706
  H      -3.029543      2.859908     -0.748605
  H      -2.337284      0.565808     -1.469717
  H      -2.739527      0.590191      0.235906
  H       0.563588      0.417947      1.533308
  H      -1.064169      1.001181      1.814203
  H      -2.002378     -1.317847      1.591940
  H      -0.735180     -1.273325      2.842331
  H      -0.377709     -1.951840      1.233853
  H      -0.506971      1.175050     -2.766679
  H      -1.017167     -0.528589     -2.753113
  H       0.679502     -0.112820     -3.125126
  H       2.678789     -2.884053      0.128298
  H       3.743730     -2.216720      1.414388
  H       1.976660     -2.304914      1.673108
28
Coordinates from ORCA-job opt E -901.736010365697
  C      -2.022885      2.487840     -0.518472
  C      -2.015257      0.965041     -0.501902
  N      -0.707793      0.408579     -0.139904
  C      -0.488482      0.223445      1.295631
  C      -0.926414     -1.157543      1.767494
  C       0.200638      0.038234     -1.056220
  C      -0.186448      0.154825     -2.512730
  N       1.378063     -0.460481     -0.802197
  P       2.590407     -0.483210      0.250795
  C       2.762951     -2.136623      0.921995
  O       2.757810      0.623510      1.245634
  F       3.879720     -0.459433     -0.731292
  H      -1.329437      2.881334     -1.276870
  H      -1.726746      2.896310      0.459610
  H      -3.032352      2.857180     -0.750859
  H      -2.337134      0.563264     -1.469756
  H      -2.740083      0.589301      0.235576
  H       0.563666      0.420281      1.533523
  H      -1.064181      1.003950      1.814254
  H      -2.001824     -1.316045      1.594815
  H      -0.734090     -1.269712      2.844611
  H      -0.377362     -1.949407      1.236183
  H      -0.505890      1.175428     -2.765889
  H      -1.015086     -0.528472     -2.752561
  H       0.681511     -0.111819     -3.123655
  H       2.679472     -2.884278      0.122360
  H       3.742508     -2.221946      1.412349
  H       1.974721     -2.309555      1.667475
28
Coordinates from ORCA-job opt E -901.736006304319
  C      -2.025389      2.486628     -0.520019
  C      -2.015877      0.963858     -0.502186
  N      -0.707895      0.409237     -0.139370
  C      -0.488333      0.225812      1.296353
  C      -0.926053     -1.154717      1.769745
  C       0.201358      0.039415     -1.055055
  C      -0.184794      0.155197     -2.511902
  N       1.379186     -0.457574     -0.800101
  P       2.591726     -0.483795      0.252337
  C       2.762573     -2.139471      0.918414
  O       2.760285      0.619707      1.250595
  F       3.880769     -0.457572     -0.729979
  H      -1.332564      2.880615     -1.278723
  H      -1.729777      2.896209      0.457758
  H      -3.035400      2.854347     -0.752640
  H      -2.336976      0.560675     -1.469709
  H      -2.740591      0.587991      0.235348
  H       0.563900      0.422865      1.533651
  H      -1.064029      1.006885      1.814130
  H      -2.001595     -1.313206      1.597763
  H      -0.733077     -1.266143      2.846803
  H      -0.377716     -1.947063      1.238410
  H      -0.504528      1.175618     -2.765537
  H      -1.013046     -0.528416     -2.752130
  H       0.683667     -0.111157     -3.122209
  H       2.680467     -2.884386      0.116082
  H       3.741045     -2.227015      1.410557
  H       1.972664     -2.314545      1.661614
