28
A-230 P8R_C5N7Z q=0
C     -0.98608921     2.54775963    -0.24751062
C     -1.71463512     1.21414419    -0.31392857
N     -0.78432891     0.10257753    -0.09108878
C     -0.70251697    -0.41046191     1.27530529
C     -1.84517153    -1.38125337     1.54078675
C      0.10933300    -0.26601306    -1.07730731
C     -0.49447817    -0.65593940    -2.41704784
N      1.39457236    -0.29540891    -1.03889686
P      2.40972053     0.16108622     0.10263694
C      3.16607621    -1.34456242     0.71450327
O      1.91739183     1.02630112     1.23022567
F      3.49388888     0.98588574    -0.69192982
H     -0.20485048     2.61294505    -1.01187061
H     -0.51291135     2.69047953     0.72934113
H     -1.68831961     3.37149361    -0.40903145
H     -2.20672569     1.11180574    -1.28736228
H     -2.51488634     1.20636904     0.43485340
H      0.23192965    -0.95443901     1.43725513
H     -0.73218397     0.41130853     1.99959295
H     -2.81978845    -0.89165471     1.45072520
H     -1.76562673    -1.79206977     2.55213356
H     -1.82285125    -2.21451925     0.83033887
H     -0.58809133     0.23720812    -3.04145554
H     -1.48160370    -1.10481822    -2.27480272
H      0.14931479    -1.37891958    -2.92686180
H      3.60595912    -1.91072524    -0.11107670
H      3.95911316    -1.10270102     1.42715898
H      2.42775929    -1.97587821     1.21531374
