28
A-230 P8S_C5N7Z q=0
C     -1.04855028     2.01591925     1.29579046
C     -1.12516985     1.25481387    -0.01865574
N     -0.32023256     0.02181294     0.00378285
C     -0.67335075    -0.98555496     1.02814703
C     -2.11306720    -1.46585114     0.91308157
C      0.20751807    -0.45573786    -1.18726859
C     -0.66443680    -0.42339495    -2.42912817
N      1.40714856    -0.89524473    -1.35932578
P      2.58245412    -0.94180385    -0.27506777
C      2.97066095     0.75025107     0.16785119
O      2.39926144    -1.81021001     0.93994248
F      3.79204303    -1.53259631    -1.09841433
H     -0.00941920     2.19462656     1.58971946
H     -1.54229693     1.47221162     2.10681238
H     -1.54750521     2.98547440     1.19845071
H     -0.73745225     1.91824191    -0.80190616
H     -2.16786590     1.03882795    -0.27521344
H     -0.02974230    -1.86425824     0.92973852
H     -0.48834027    -0.57983897     2.02822958
H     -2.82619038    -0.66431338     1.12701143
H     -2.29777006    -2.27049349     1.63218304
H     -2.32472436    -1.85204481    -0.08877436
H     -0.54218415     0.54217467    -2.92795094
H     -1.71605210    -0.56456650    -2.16752478
H     -0.36612288    -1.21777668    -3.11975878
H      3.88654497     0.77691484     0.76453739
H      3.12851684     1.35290707    -0.73066178
H      2.16632548     1.19950969     0.75437252
