29
Coordinates from ORCA-job opt E -2748.939663317931
  C          -2.73377963291350      3.74332386443952     -0.27957732678393
  C          -1.57607991045731      2.86644501833448     -0.68652969091369
  O          -1.78985572236536      1.55070240580009     -0.13148043213791
  P          -0.92106967056313      0.30124983262056     -0.58466747472644
  S          -0.88028172265768     -0.16433779455106     -2.44819476242586
  O          -1.43163442274719     -0.77397399384017      0.46094151387559
  C          -1.58518205291279     -2.18208847964528      0.17000134998902
  C          -1.91381680347732     -2.88426664128276      1.46377101144242
  O           0.53578038530151      0.81473366023923      0.02024695702105
  C           1.65988152819584      0.07912410679862     -0.00469812894946
  N           1.56677939993457     -1.22553942367763     -0.14621473433205
  C           2.65004231671075     -1.97646898740255     -0.15890286386388
  Cl          2.41483131186692     -3.67805709228848     -0.35484400709191
  C           3.93193179164049     -1.43819285462952     -0.01850785354705
  Cl          5.34324498255694     -2.42702140805762     -0.03074845014992
  C           4.04468116021790     -0.05500313750313      0.13357662361551
  C           2.89792243656164      0.72428410624954      0.13805022267547
  Cl          2.97401689002647      2.43686931804320      0.31128221136066
  H          -2.80372825020359      3.81696627900791      0.81531872844270
  H          -2.58889324110206      4.75409259048760     -0.68710247332520
  H          -3.68106697671790      3.34345018423467     -0.66921291608740
  H          -1.50081477960341      2.77856492033317     -1.78214713401805
  H          -0.61787083390822      3.24904405043879     -0.30212575741472
  H          -0.64537397340361     -2.55651626088193     -0.26047449189993
  H          -2.38756222590885     -2.29693607367027     -0.57416947507244
  H          -1.09798276640541     -2.76093492538145      2.19082874268186
  H          -2.84200530094718     -2.48970532788733      1.90210337684171
  H          -2.04914372389879     -3.95828891428161      1.27142679093353
  H           5.02702978718025      0.40848101795344      0.24205046386032
