29
Coordinates from ORCA-job opt E -2748.926042933755
  C      -2.280343      3.844166     -0.118730
  C      -1.658671      2.712698     -0.911383
  O      -1.956695      1.489005     -0.260330
  P      -1.023231      0.190127     -0.560136
  S      -1.032092     -0.334457     -2.432978
  O      -1.676934     -0.816020      0.524773
  C      -1.211810     -2.144826      0.658540
  C      -2.328363     -2.986595      1.243912
  O       0.348485      0.687494      0.124856
  C       1.541216      0.032169      0.003619
  N       1.510479     -1.279291     -0.295232
  C       2.707095     -1.908270     -0.403414
  Cl      2.542875     -3.578388     -0.777543
  C       3.936346     -1.283737     -0.215706
  Cl      5.444831     -2.101937     -0.350149
  C       3.935441      0.072735      0.103623
  C       2.719778      0.744008      0.219034
  Cl      2.717088      2.421319      0.606824
  H      -1.881982      3.863753      0.901113
  H      -2.081653      4.808874     -0.593845
  H      -3.363601      3.707622     -0.035148
  H      -2.077487      2.691356     -1.921873
  H      -0.575994      2.857501     -0.979912
  H      -0.355252     -2.153047      1.338062
  H      -0.912751     -2.557094     -0.308541
  H      -2.647068     -2.586447      2.212135
  H      -3.205606     -2.971784      0.588651
  H      -2.005955     -4.022814      1.378975
  H       4.871853      0.601880      0.260804
29
Coordinates from ORCA-job opt E -2748.933254977961
  C      -2.188442      3.779845     -0.136366
  C      -1.575459      2.632841     -0.909877
  O      -1.892271      1.412036     -0.233786
  P      -0.998260      0.097304     -0.509744
  S      -0.962063     -0.468140     -2.360536
  O      -1.709342     -0.857991      0.572615
  C      -1.401110     -2.249012      0.707642
  C      -2.602152     -2.946600      1.312685
  O       0.388430      0.599614      0.175100
  C       1.611220      0.029917      0.006358
  N       1.667006     -1.233347     -0.376233
  C       2.865459     -1.794153     -0.533680
  Cl      2.825957     -3.445101     -1.027390
  C       4.060281     -1.115679     -0.312841
  Cl      5.597338     -1.862104     -0.524652
  C       3.989747      0.217237      0.092894
  C       2.742672      0.806473      0.256000
  Cl      2.612165      2.452694      0.746257
  H      -1.783504      3.818003      0.885920
  H      -1.976697      4.735000     -0.635876
  H      -3.279006      3.656964     -0.057945
  H      -1.986447      2.593249     -1.931301
  H      -0.482951      2.759915     -0.976278
  H      -0.526932     -2.357840      1.365851
  H      -1.162719     -2.687804     -0.272338
  H      -2.852884     -2.512691      2.292402
  H      -3.484532     -2.833583      0.664731
  H      -2.395632     -4.017459      1.444749
  H       4.900128      0.790412      0.275638
29
Coordinates from ORCA-job opt E -2748.936564501886
  C      -2.222310      3.785534     -0.015433
  C      -1.620566      2.686942     -0.858775
  O      -1.887968      1.424177     -0.210143
  P      -1.015871      0.137261     -0.567041
  S      -0.983027     -0.413402     -2.408993
  O      -1.665393     -0.845221      0.504462
  C      -1.370156     -2.258922      0.587841
  C      -2.547418     -2.951853      1.233713
  O       0.411690      0.632483      0.078989
  C       1.617626      0.035935     -0.032770
  N       1.670552     -1.253550     -0.185352
  C       2.825157     -1.864200     -0.264266
  Cl      2.800961     -3.581761     -0.466124
  C       4.035423     -1.174809     -0.184677
  Cl      5.544323     -1.999195     -0.292563
  C       3.992416      0.210973     -0.012305
  C       2.760418      0.838179      0.065543
  Cl      2.619792      2.543604      0.268051
  H      -1.763196      3.802407      0.987371
  H      -2.049886      4.760936     -0.497915
  H      -3.309624      3.639130      0.099935
  H      -2.065923      2.665348     -1.870876
  H      -0.528381      2.827675     -0.964150
  H      -0.448469     -2.390158      1.182505
  H      -1.181402     -2.654469     -0.427424
  H      -2.734452     -2.549481      2.243749
  H      -3.460977     -2.815198      0.630447
  H      -2.339866     -4.030505      1.320378
  H       4.916530      0.792144      0.055824
29
Coordinates from ORCA-job opt E -2748.937852277666
  C      -2.255495      3.783286     -0.013345
  C      -1.633213      2.690424     -0.847173
  O      -1.874809      1.428578     -0.185850
  P      -0.997328      0.148883     -0.537645
  S      -0.912624     -0.413711     -2.371838
  O      -1.630958     -0.846870      0.525198
  C      -1.388049     -2.272007      0.544217
  C      -2.558961     -2.941191      1.221141
  O       0.429391      0.651154      0.112736
  C       1.629843      0.048027      0.001559
  N       1.679790     -1.252909     -0.125536
  C       2.834036     -1.874639     -0.213472
  Cl      2.800548     -3.597598     -0.371267
  C       4.049823     -1.184374     -0.174211
  Cl      5.558801     -2.008639     -0.289509
  C       4.011653      0.206093     -0.041625
  C       2.784004      0.844842      0.044167
  Cl      2.658367      2.556150      0.193361
  H      -1.790709      3.824250      0.983219
  H      -2.107464      4.753991     -0.509053
  H      -3.336444      3.615555      0.107794
  H      -2.076202      2.644703     -1.855454
  H      -0.546601      2.844987     -0.953684
  H      -0.444820     -2.452896      1.082116
  H      -1.261657     -2.628004     -0.491673
  H      -2.681474     -2.570790      2.250246
  H      -3.490977     -2.753470      0.666796
  H      -2.386898     -4.026941      1.260969
  H       4.938428      0.783118     -0.012184
29
Coordinates from ORCA-job opt E -2748.938598801033
  C      -2.312065      3.769651      0.013227
  C      -1.648809      2.698762     -0.815979
  O      -1.852443      1.429277     -0.155593
  P      -0.964361      0.166237     -0.519719
  S      -0.834241     -0.384921     -2.353976
  O      -1.561388     -0.856094      0.534685
  C      -1.411040     -2.291227      0.457697
  C      -2.560245     -2.925298      1.199961
  O       0.462812      0.692327      0.122176
  C       1.651905      0.074646      0.013858
  N       1.688266     -1.240545     -0.020810
  C       2.838472     -1.881245     -0.091934
  Cl      2.775201     -3.608484     -0.129389
  C       4.063147     -1.203695     -0.133143
  Cl      5.566821     -2.040702     -0.223924
  C       4.039356      0.191225     -0.100203
  C       2.821201      0.851989     -0.030612
  Cl      2.726660      2.570636      0.001419
  H      -1.851274      3.831303      1.008675
  H      -2.196573      4.742098     -0.485292
  H      -3.385501      3.565703      0.129756
  H      -2.082364      2.632068     -1.824411
  H      -0.568244      2.881797     -0.914251
  H      -0.438059     -2.551946      0.894443
  H      -1.396091     -2.586186     -0.601857
  H      -2.571456     -2.606931      2.251628
  H      -3.520385     -2.657776      0.737498
  H      -2.451832     -4.018592      1.171188
  H       4.972529      0.755923     -0.135119
29
Coordinates from ORCA-job opt E -2748.938841841075
  C      -2.358171      3.753142      0.018885
  C      -1.654732      2.699942     -0.799503
  O      -1.834395      1.425207     -0.141787
  P      -0.933096      0.175194     -0.512736
  S      -0.781451     -0.361446     -2.350855
  O      -1.506152     -0.863489      0.537879
  C      -1.430050     -2.300186      0.403494
  C      -2.555298     -2.908393      1.202278
  O       0.490003      0.722440      0.127807
  C       1.672390      0.093094      0.028668
  N       1.693812     -1.224775      0.032348
  C       2.837857     -1.877228     -0.039313
  Cl      2.751679     -3.602717     -0.024291
  C       4.068776     -1.216140     -0.114262
  Cl      5.563014     -2.070111     -0.198224
  C       4.059746      0.178541     -0.121760
  C       2.849275      0.853493     -0.056989
  Cl      2.777353      2.573764     -0.079578
  H      -1.914717      3.827119      1.021505
  H      -2.259911      4.728307     -0.478295
  H      -3.427878      3.521741      0.118392
  H      -2.072499      2.620561     -1.813902
  H      -0.577464      2.909158     -0.881874
  H      -0.442198     -2.618657      0.762351
  H      -1.501803     -2.555671     -0.664032
  H      -2.479892     -2.629382      2.262609
  H      -3.531115     -2.581632      0.816696
  H      -2.501341     -4.003831      1.129038
  H       4.998258      0.731955     -0.184551
29
Coordinates from ORCA-job opt E -2748.938984508910
  C      -2.416388      3.726904      0.016333
  C      -1.657006      2.698871     -0.783913
  O      -1.813448      1.417102     -0.134057
  P      -0.896073      0.182093     -0.516144
  S      -0.737348     -0.333660     -2.361662
  O      -1.436445     -0.873915      0.533739
  C      -1.463607     -2.305305      0.338393
  C      -2.538654     -2.881534      1.225826
  O       0.522540      0.754321      0.120819
  C       1.698523      0.110802      0.030751
  N       1.702213     -1.207240      0.063414
  C       2.839377     -1.871921      0.001426
  Cl      2.729626     -3.595585      0.043805
  C       4.077510     -1.229721     -0.090747
  Cl      5.559410     -2.105642     -0.163727
  C       4.086044      0.164480     -0.125426
  C       2.883227      0.853488     -0.070537
  Cl      2.835027      2.574940     -0.125521
  H      -2.007381      3.809246      1.033406
  H      -2.331733      4.707314     -0.473646
  H      -3.481720      3.463061      0.081507
  H      -2.045749      2.610004     -1.809812
  H      -0.584344      2.941869     -0.836381
  H      -0.465937     -2.696280      0.582975
  H      -1.660022     -2.509805     -0.724927
  H      -2.337844     -2.658398      2.283600
  H      -3.525822     -2.477661      0.958868
  H      -2.564735     -3.973808      1.102267
  H       5.030757      0.705978     -0.200631
29
Coordinates from ORCA-job opt E -2748.939073416502
  C      -2.436542      3.726719      0.003516
  C      -1.651637      2.707598     -0.783830
  O      -1.816531      1.421680     -0.144858
  P      -0.895772      0.187583     -0.527042
  S      -0.744620     -0.327266     -2.374003
  O      -1.427447     -0.868867      0.526690
  C      -1.456550     -2.300217      0.331939
  C      -2.507309     -2.878453      1.247109
  O       0.521930      0.762188      0.110735
  C       1.695336      0.110674      0.025780
  N       1.688928     -1.206153      0.040447
  C       2.821367     -1.877003     -0.020244
  Cl      2.701595     -3.601135      0.001375
  C       4.064539     -1.242493     -0.090802
  Cl      5.539539     -2.130350     -0.159814
  C       4.083490      0.152346     -0.106551
  C       2.884390      0.847677     -0.053947
  Cl      2.846291      2.570404     -0.086150
  H      -2.056260      3.802153      1.032620
  H      -2.342455      4.711646     -0.476088
  H      -3.502452      3.457855      0.037748
  H      -2.015086      2.624432     -1.820036
  H      -0.579135      2.958036     -0.808452
  H      -0.452038     -2.688941      0.554834
  H      -1.679118     -2.507934     -0.725977
  H      -2.281052     -2.652402      2.299475
  H      -3.502361     -2.477683      1.004385
  H      -2.533322     -3.971238      1.126312
  H       5.032281      0.689144     -0.165171
29
Coordinates from ORCA-job opt E -2748.939166988388
  C      -2.475260      3.721278     -0.024373
  C      -1.636891      2.721209     -0.781065
  O      -1.817668      1.427439     -0.163917
  P      -0.895616      0.193373     -0.550643
  S      -0.769548     -0.319681     -2.399985
  O      -1.411014     -0.861939      0.511174
  C      -1.467069     -2.291403      0.309640
  C      -2.451654     -2.865887      1.298149
  O       0.524204      0.770432      0.083493
  C       1.693782      0.106610      0.007798
  N       1.676402     -1.207958     -0.014211
  C       2.803382     -1.886746     -0.064584
  Cl      2.673897     -3.611678     -0.091971
  C       4.053071     -1.260894     -0.086684
  Cl      5.520311     -2.162712     -0.142563
  C       4.084080      0.134218     -0.062354
  C       2.889021      0.837058     -0.019855
  Cl      2.861513      2.560503     -0.001540
  H      -2.155553      3.783759      1.026122
  H      -2.363943      4.714472     -0.482909
  H      -3.538640      3.441446     -0.054511
  H      -1.944890      2.648107     -1.836161
  H      -0.567968      2.986196     -0.746653
  H      -0.452550     -2.689655      0.459959
  H      -1.768481     -2.492996     -0.729872
  H      -2.146865     -2.644762      2.331661
  H      -3.459288     -2.457295      1.131569
  H      -2.494391     -3.958055      1.176403
  H       5.037627      0.665561     -0.082119
29
Coordinates from ORCA-job opt E -2748.939208073454
  C      -2.491157      3.720803     -0.039592
  C      -1.634010      2.725583     -0.781638
  O      -1.813700      1.432276     -0.163841
  P      -0.895378      0.196082     -0.554040
  S      -0.783658     -0.317961     -2.403140
  O      -1.407402     -0.858037      0.510113
  C      -1.475001     -2.286322      0.303324
  C      -2.432975     -2.860717      1.317493
  O       0.527896      0.769886      0.075974
  C       1.695709      0.102952      0.004369
  N       1.676677     -1.210900     -0.038573
  C       2.802449     -1.892160     -0.086987
  Cl      2.670756     -3.616367     -0.142672
  C       4.053719     -1.268027     -0.086932
  Cl      5.520219     -2.171256     -0.141879
  C       4.086980      0.126531     -0.041171
  C       2.893241      0.831680     -0.000128
  Cl      2.867994      2.554359      0.043561
  H      -2.187450      3.787805      1.015187
  H      -2.380662      4.713760     -0.498587
  H      -3.551656      3.432813     -0.084574
  H      -1.925261      2.647915     -1.841000
  H      -0.567898      2.998170     -0.732028
  H      -0.458833     -2.690620      0.421368
  H      -1.807672     -2.480249     -0.727834
  H      -2.096079     -2.647105      2.342367
  H      -3.442579     -2.445342      1.183862
  H      -2.485845     -3.951774      1.190922
  H       5.041576      0.656223     -0.043925
29
Coordinates from ORCA-job opt E -2748.939318416446
  C      -2.560941      3.712851     -0.090005
  C      -1.627495      2.745401     -0.774431
  O      -1.793950      1.451159     -0.156766
  P      -0.886848      0.212591     -0.566911
  S      -0.821097     -0.296289     -2.417209
  O      -1.374764     -0.845901      0.503325
  C      -1.510265     -2.264790      0.264609
  C      -2.346995     -2.844371      1.377606
  O       0.548381      0.781866      0.042707
  C       1.705868      0.099102     -0.010065
  N       1.673355     -1.212458     -0.101613
  C       2.791253     -1.909291     -0.135928
  Cl      2.639348     -3.627638     -0.261359
  C       4.049817     -1.301946     -0.072370
  Cl      5.507964     -2.219779     -0.110848
  C       4.098442      0.089585      0.023813
  C       2.914311      0.811119      0.050603
  Cl      2.908998      2.530450      0.154789
  H      -2.319968      3.797124      0.979250
  H      -2.460563      4.706194     -0.549887
  H      -3.605752      3.386225     -0.192086
  H      -1.853609      2.650824     -1.847950
  H      -0.576062      3.053759     -0.666568
  H      -0.502117     -2.702903      0.234835
  H      -1.980462     -2.410533     -0.719171
  H      -1.868664     -2.682132      2.354065
  H      -3.347689     -2.389204      1.395412
  H      -2.459588     -3.926851      1.222141
  H       5.059093      0.605837      0.070011
29
Coordinates from ORCA-job opt E -2748.939356647854
  C      -2.651738      3.707782     -0.164197
  C      -1.616195      2.783522     -0.754762
  O      -1.773957      1.485560     -0.144386
  P      -0.883766      0.243518     -0.581703
  S      -0.875975     -0.256741     -2.433312
  O      -1.339353     -0.822197      0.495576
  C      -1.545847     -2.227525      0.226098
  C      -2.200304     -2.838195      1.439473
  O       0.567928      0.803967     -0.001576
  C       1.708779      0.096294     -0.029230
  N       1.653541     -1.210382     -0.172657
  C       2.756773     -1.932751     -0.186714
  Cl      2.571874     -3.639844     -0.386734
  C       4.024046     -1.356957     -0.049606
  Cl      5.464553     -2.303238     -0.064193
  C       4.097802      0.028793      0.100899
  C       2.930733      0.777508      0.108042
  Cl      2.958042      2.490720      0.277398
  H      -2.512208      3.807206      0.921469
  H      -2.557017      4.703126     -0.620589
  H      -3.666403      3.331762     -0.357134
  H      -1.739880      2.674994     -1.843498
  H      -0.593292      3.138242     -0.556217
  H      -0.569118     -2.684169      0.010928
  H      -2.176656     -2.318685     -0.669946
  H      -1.557021     -2.737010      2.324972
  H      -3.166521     -2.357820      1.648838
  H      -2.375460     -3.908086      1.258175
  H       5.066641      0.520608      0.204585
29
Coordinates from ORCA-job opt E -2748.939426689572
  C      -2.631361      3.719290     -0.146877
  C      -1.619780      2.781301     -0.756678
  O      -1.781928      1.484684     -0.143436
  P      -0.891956      0.241751     -0.576243
  S      -0.868609     -0.259599     -2.428344
  O      -1.361218     -0.822670      0.497796
  C      -1.517238     -2.236441      0.238954
  C      -2.226926     -2.847629      1.420764
  O       0.557610      0.798274      0.008919
  C       1.701797      0.096109     -0.026210
  N       1.648342     -1.212627     -0.152734
  C       2.753980     -1.931103     -0.171189
  Cl      2.570486     -3.640960     -0.344364
  C       4.020611     -1.350588     -0.055667
  Cl      5.463430     -2.293104     -0.075116
  C       4.091936      0.037026      0.077574
  C       2.922531      0.781933      0.089516
  Cl      2.947400      2.497289      0.239307
  H      -2.468443      3.818939      0.935663
  H      -2.533527      4.712765     -0.606915
  H      -3.654468      3.355753     -0.318899
  H      -1.766441      2.673743     -1.842749
  H      -0.588785      3.123776     -0.578354
  H      -0.517794     -2.669797      0.089816
  H      -2.090783     -2.358289     -0.691693
  H      -1.641369     -2.715280      2.341772
  H      -3.217206     -2.391976      1.563043
  H      -2.360948     -3.924830      1.246941
  H       5.060657      0.532260      0.165406
29
Coordinates from ORCA-job opt E -2748.939465767161
  C      -2.635042      3.723233     -0.152603
  C      -1.610278      2.788063     -0.744015
  O      -1.784310      1.488010     -0.140326
  P      -0.897293      0.244495     -0.575014
  S      -0.867641     -0.253784     -2.429042
  O      -1.373706     -0.820238      0.496698
  C      -1.513741     -2.235974      0.238612
  C      -2.218460     -2.854925      1.419536
  O       0.552997      0.797682      0.009613
  C       1.697394      0.095191     -0.025382
  N       1.641597     -1.214003     -0.144018
  C       2.746898     -1.932422     -0.164582
  Cl      2.560287     -3.643479     -0.322907
  C       4.014115     -1.353348     -0.057881
  Cl      5.454990     -2.298734     -0.078384
  C       4.087463      0.035044      0.067638
  C       2.918366      0.780052      0.080968
  Cl      2.945613      2.496774      0.221092
  H      -2.496554      3.818842      0.933922
  H      -2.526857      4.718753     -0.606146
  H      -3.654136      3.360451     -0.349559
  H      -1.733993      2.685491     -1.833669
  H      -0.583288      3.130121     -0.541709
  H      -0.508246     -2.657395      0.094466
  H      -2.083502     -2.366923     -0.693550
  H      -1.637808     -2.712445      2.342348
  H      -3.216175     -2.413565      1.556984
  H      -2.335878     -3.934515      1.247696
  H       5.057188      0.529549      0.149213
29
Coordinates from ORCA-job opt E -2748.939486427933
  C      -2.646980      3.725055     -0.171236
  C      -1.596125      2.797464     -0.727523
  O      -1.784981      1.493559     -0.136039
  P      -0.902358      0.248284     -0.573461
  S      -0.869739     -0.247491     -2.429251
  O      -1.385755     -0.816152      0.496281
  C      -1.520892     -2.232124      0.235810
  C      -2.197338     -2.859801      1.428755
  O       0.549985      0.796048      0.009666
  C       1.693829      0.092254     -0.026581
  N       1.635601     -1.216473     -0.146775
  C       2.740333     -1.935395     -0.168384
  Cl      2.551442     -3.645968     -0.332824
  C       4.008168     -1.358729     -0.061034
  Cl      5.446930     -2.307092     -0.085090
  C       4.083563      0.029438      0.067706
  C       2.914975      0.774978      0.082102
  Cl      2.944470      2.491805      0.227295
  H      -2.551714      3.815839      0.920468
  H      -2.525062      4.723523     -0.614958
  H      -3.656184      3.359573     -0.410263
  H      -1.678959      2.699743     -1.821685
  H      -0.578998      3.142983     -0.484955
  H      -0.515057     -2.646180      0.072594
  H      -2.108526     -2.365132     -0.685010
  H      -1.599774     -2.714728      2.340404
  H      -3.196169     -2.427551      1.586466
  H      -2.308707     -3.940046      1.256549
  H       5.054022      0.522318      0.150972
29
Coordinates from ORCA-job opt E -2748.939493687148
  C      -2.651905      3.723720     -0.175509
  C      -1.590424      2.800790     -0.719234
  O      -1.784694      1.494494     -0.134424
  P      -0.902300      0.249480     -0.573016
  S      -0.864763     -0.243733     -2.429866
  O      -1.390393     -0.815653      0.493840
  C      -1.526984     -2.231312      0.231405
  C      -2.192416     -2.861091      1.429534
  O       0.549963      0.795116      0.012358
  C       1.693747      0.091056     -0.025039
  N       1.634983     -1.218078     -0.139971
  C       2.739739     -1.936750     -0.162720
  Cl      2.550824     -3.648467     -0.318516
  C       4.008063     -1.359582     -0.061048
  Cl      5.446388     -2.308510     -0.084537
  C       4.083907      0.029102      0.062005
  C       2.915026      0.774337      0.076849
  Cl      2.944917      2.491894      0.215195
  H      -2.574867      3.809153      0.918051
  H      -2.524176      4.724646     -0.612086
  H      -3.656470      3.358198     -0.433222
  H      -1.656807      2.706865     -1.814851
  H      -0.577960      3.147572     -0.459983
  H      -0.522765     -2.645205      0.058355
  H      -2.123780     -2.362424     -0.683643
  H      -1.586501     -2.717149      2.335812
  H      -3.189995     -2.429710      1.597103
  H      -2.304924     -3.941113      1.256637
  H       5.054568      0.522355      0.140522
29
Coordinates from ORCA-job opt E -2748.939502017503
  C      -2.663190      3.723229     -0.189927
  C      -1.582726      2.807933     -0.708707
  O      -1.783703      1.499591     -0.130734
  P      -0.903037      0.253415     -0.570472
  S      -0.861589     -0.237029     -2.428193
  O      -1.398692     -0.812163      0.492314
  C      -1.533850     -2.227716      0.227802
  C      -2.176614     -2.862214      1.435880
  O       0.549627      0.793298      0.018766
  C       1.692455      0.087962     -0.021891
  N       1.632147     -1.220975     -0.139388
  C       2.736211     -1.940693     -0.164944
  Cl      2.545921     -3.651866     -0.326658
  C       4.005484     -1.364679     -0.063611
  Cl      5.442839     -2.314854     -0.090824
  C       4.082909      0.023624      0.062063
  C       2.914617      0.770030      0.079649
  Cl      2.946597      2.487225      0.221192
  H      -2.616712      3.803346      0.905684
  H      -2.528005      4.726935     -0.617790
  H      -3.658574      3.354907     -0.477254
  H      -1.621097      2.716246     -1.805781
  H      -0.579206      3.159501     -0.423154
  H      -0.531996     -2.638772      0.036078
  H      -2.147234     -2.357432     -0.676232
  H      -1.554863     -2.718936      2.331404
  H      -3.171956     -2.433731      1.622512
  H      -2.289875     -3.941997      1.262187
  H       5.054112      0.515813      0.140029
29
Coordinates from ORCA-job opt E -2748.939535247805
  C      -2.700610      3.721062     -0.237822
  C      -1.563948      2.831838     -0.675887
  O      -1.780448      1.517180     -0.118463
  P      -0.905417      0.268705     -0.565058
  S      -0.862082     -0.211801     -2.425423
  O      -1.414111     -0.799991      0.487945
  C      -1.553988     -2.213570      0.214056
  C      -2.111498     -2.865366      1.455007
  O       0.549615      0.793964      0.031115
  C       1.687556      0.081295     -0.015257
  N       1.618831     -1.226522     -0.142965
  C       2.718099     -1.953527     -0.173786
  Cl      2.517298     -3.661997     -0.351019
  C       3.991410     -1.386153     -0.066665
  Cl      5.422717     -2.345116     -0.099075
  C       4.077861      0.000440      0.069612
  C       2.914404      0.754820      0.092018
  Cl      2.958085      2.470304      0.246529
  H      -2.746553      3.786484      0.858668
  H      -2.548921      4.732837     -0.640394
  H      -3.661651      3.339969     -0.611849
  H      -1.516441      2.746280     -1.773021
  H      -0.592796      3.201168     -0.312509
  H      -0.565468     -2.616868     -0.048511
  H      -2.227343     -2.335085     -0.647228
  H      -1.430700     -2.729079      2.307564
  H      -3.093174     -2.443609      1.714299
  H      -2.232835     -3.943432      1.276527
  H       5.052107      0.485771      0.151593
29
Coordinates from ORCA-job opt E -2748.939545293549
  C      -2.759995      3.716573     -0.322733
  C      -1.547366      2.872649     -0.626666
  O      -1.774722      1.550614     -0.091920
  P      -0.911571      0.299660     -0.556854
  S      -0.884676     -0.165068     -2.421401
  O      -1.424179     -0.775534      0.487150
  C      -1.590221     -2.182409      0.191728
  C      -1.972005     -2.870713      1.478754
  O       0.551869      0.804580      0.036448
  C       1.677927      0.073994     -0.010027
  N       1.589757     -1.230522     -0.160509
  C       2.677294     -1.975397     -0.190979
  Cl      2.451165     -3.676922     -0.401490
  C       3.958647     -1.430329     -0.059158
  Cl      5.374937     -2.411300     -0.089681
  C       4.065899     -0.047870      0.101122
  C       2.914768      0.725676      0.122648
  Cl      2.984854      2.436920      0.307198
  H      -2.939456      3.767740      0.760590
  H      -2.597830      4.737648     -0.696727
  H      -3.654712      3.306579     -0.812434
  H      -1.372909      2.792304     -1.711268
  H      -0.637881      3.275547     -0.156242
  H      -0.645775     -2.573164     -0.212475
  H      -2.375619     -2.282830     -0.571478
  H      -1.178538     -2.756350      2.231160
  H      -2.906834     -2.458785      1.884700
  H      -2.119568     -3.943401      1.288347
  H       5.046739      0.420112      0.202198
29
Coordinates from ORCA-job opt E -2748.939625124174
  C      -2.750994      3.720110     -0.280629
  C      -1.574477      2.860267     -0.669817
  O      -1.768425      1.546717     -0.102203
  P      -0.903598      0.298502     -0.568802
  S      -0.894376     -0.169194     -2.431895
  O      -1.392299     -0.778447      0.485090
  C      -1.573154     -2.183027      0.189275
  C      -1.989865     -2.868543      1.466585
  O       0.561044      0.815512      0.012731
  C       1.685649      0.081841     -0.019045
  N       1.595349     -1.222559     -0.166597
  C       2.680473     -1.971263     -0.182396
  Cl      2.449694     -3.672414     -0.387059
  C       3.961446     -1.430468     -0.039391
  Cl      5.375223     -2.415790     -0.053557
  C       4.071178     -0.047691      0.117903
  C       2.922930      0.729527      0.125345
  Cl      2.995556      2.441131      0.306412
  H      -2.832906      3.799330      0.812927
  H      -2.618423      4.730591     -0.693020
  H      -3.687800      3.302952     -0.677078
  H      -1.489141      2.762996     -1.763856
  H      -0.626255      3.262674     -0.281700
  H      -0.623973     -2.583684     -0.194469
  H      -2.340069     -2.276166     -0.593857
  H      -1.211379     -2.765095      2.236230
  H      -2.928447     -2.445962      1.853119
  H      -2.145424     -3.939289      1.271208
  H       5.052460      0.417444      0.228546
29
Coordinates from ORCA-job opt E -2748.939639977813
  C      -2.751181      3.725684     -0.289566
  C      -1.571180      2.865060     -0.666214
  O      -1.772693      1.550337     -0.103803
  P      -0.909323      0.301471     -0.570164
  S      -0.895427     -0.163254     -2.434442
  O      -1.402388     -0.775726      0.481881
  C      -1.575637     -2.181166      0.186390
  C      -1.965342     -2.873681      1.468379
  O       0.554676      0.816049      0.014585
  C       1.678554      0.080446     -0.015472
  N       1.586067     -1.223487     -0.163956
  C       2.670087     -1.973418     -0.180282
  Cl      2.436617     -3.674135     -0.386230
  C       3.951664     -1.434954     -0.037215
  Cl      5.363617     -2.422825     -0.053672
  C       4.063525     -0.052455      0.121554
  C       2.916225      0.725964      0.129840
  Cl      2.991107      2.437651      0.311576
  H      -2.846538      3.802931      0.803172
  H      -2.612416      4.736909     -0.698186
  H      -3.683548      3.310210     -0.698289
  H      -1.472851      2.770302     -1.759463
  H      -0.627116      3.265737     -0.265786
  H      -0.628336     -2.572794     -0.211254
  H      -2.353196     -2.281264     -0.585581
  H      -1.175932     -2.763003      2.225933
  H      -2.902411     -2.462045      1.870542
  H      -2.112152     -3.945745      1.273335
  H       5.045528      0.411203      0.232387
29
Coordinates from ORCA-job opt E -2748.939650795394
  C      -2.745633      3.732965     -0.289073
  C      -1.571519      2.866563     -0.670575
  O      -1.779000      1.551408     -0.111303
  P      -0.914822      0.302379     -0.574226
  S      -0.891112     -0.160781     -2.439115
  O      -1.413797     -0.774511      0.475579
  C      -1.576051     -2.181342      0.182386
  C      -1.946028     -2.878366      1.467633
  O       0.546895      0.815932      0.017054
  C       1.670839      0.079737     -0.011568
  N       1.577325     -1.224098     -0.158682
  C       2.660802     -1.974476     -0.175221
  Cl      2.425770     -3.675564     -0.376916
  C       3.942615     -1.437011     -0.033161
  Cl      5.353582     -2.426273     -0.049741
  C       4.055507     -0.054431      0.124725
  C       2.908551      0.724371      0.133091
  Cl      2.984334      2.436392      0.313502
  H      -2.837148      3.809897      0.804113
  H      -2.603170      4.743831     -0.697326
  H      -3.681384      3.322166     -0.695012
  H      -1.476258      2.773980     -1.764320
  H      -0.624258      3.261447     -0.271425
  H      -0.628067     -2.564131     -0.222455
  H      -2.358980     -2.290748     -0.583144
  H      -1.150793     -2.758211      2.217750
  H      -2.884166     -2.477713      1.878637
  H      -2.081901     -3.952089      1.273878
  H       5.037869      0.408677      0.234916
29
Coordinates from ORCA-job opt E -2748.939657688706
  C      -2.744290      3.737738     -0.288457
  C      -1.574225      2.868819     -0.676546
  O      -1.783013      1.553504     -0.118308
  P      -0.917698      0.304519     -0.578749
  S      -0.888385     -0.157915     -2.443596
  O      -1.419910     -0.772414      0.469329
  C      -1.580113     -2.179191      0.176056
  C      -1.922602     -2.881273      1.466131
  O       0.542568      0.817373      0.017505
  C       1.665504      0.079537     -0.008561
  N       1.570160     -1.224312     -0.154507
  C       2.652235     -1.976734     -0.168663
  Cl      2.414376     -3.677591     -0.368617
  C       3.934760     -1.441285     -0.025356
  Cl      5.344177     -2.432808     -0.039346
  C       4.049755     -0.058746      0.131414
  C       2.904171      0.722118      0.137533
  Cl      2.982574      2.434149      0.316612
  H      -2.829688      3.814773      0.805205
  H      -2.602055      4.748305     -0.697478
  H      -3.683027      3.328627     -0.689200
  H      -1.484134      2.777302     -1.770812
  H      -0.624120      3.260952     -0.281416
  H      -0.637978     -2.557237     -0.246528
  H      -2.376280     -2.290730     -0.575439
  H      -1.113516     -2.759602      2.201079
  H      -2.854300     -2.485665      1.896248
  H      -2.057698     -3.955010      1.271984
  H       5.032753      0.402797      0.242484
29
Coordinates from ORCA-job opt E -2748.939660408729
  C      -2.730603      3.743827     -0.277957
  C      -1.574262      2.865254     -0.684963
  O      -1.791609      1.548820     -0.132810
  P      -0.921785      0.299813     -0.584430
  S      -0.875278     -0.164705     -2.448331
  O      -1.435015     -0.775314      0.459975
  C      -1.582243     -2.184233      0.171512
  C      -1.921331     -2.884373      1.463642
  O       0.533665      0.813307      0.023681
  C       1.658794      0.078883     -0.002914
  N       1.566712     -1.225976     -0.142545
  C       2.650729     -1.975555     -0.157599
  Cl      2.416901     -3.677840     -0.349799
  C       3.932393     -1.435723     -0.021898
  Cl      5.344637     -2.423152     -0.037747
  C       4.044085     -0.052223      0.128290
  C       2.896311      0.725563      0.135493
  Cl      2.970822      2.438590      0.306172
  H      -2.802077      3.815720      0.816993
  H      -2.583103      4.755025     -0.683477
  H      -3.678085      3.346348     -0.669678
  H      -1.497506      2.779348     -1.780635
  H      -0.615827      3.245321     -0.298366
  H      -0.636909     -2.557320     -0.248100
  H      -2.376553     -2.304183     -0.580615
  H      -1.113849     -2.754780      2.198962
  H      -2.856101     -2.493407      1.891181
  H      -2.049146     -3.959591      1.272890
  H       5.026232      0.412554      0.233074
29
Coordinates from ORCA-job opt E -2748.939666348783
  C      -2.733553      3.743630     -0.279672
  C      -1.576118      2.866488     -0.686798
  O      -1.790206      1.550751     -0.131892
  P      -0.921351      0.301304     -0.584792
  S      -0.879860     -0.163991     -2.448360
  O      -1.432336     -0.773858      0.460650
  C      -1.584766     -2.182032      0.170254
  C      -1.913456     -2.884131      1.464044
  O       0.535336      0.814514      0.020799
  C       1.659503      0.078969     -0.004621
  N       1.566486     -1.225634     -0.146676
  C       2.649735     -1.976560     -0.159820
  Cl      2.414493     -3.678143     -0.355648
  C       3.931590     -1.438329     -0.019026
  Cl      5.342931     -2.427123     -0.031329
  C       4.044304     -0.055207      0.133700
  C       2.897542      0.724081      0.138469
  Cl      2.973535      2.436559      0.312756
  H      -2.803240      3.817477      0.815226
  H      -2.588671      4.754305     -0.687407
  H      -3.680959      3.343688     -0.668958
  H      -1.500879      2.778666     -1.782416
  H      -0.617792      3.248882     -0.302460
  H      -0.644444     -2.556124     -0.259429
  H      -2.386538     -2.297965     -0.574430
  H      -1.098240     -2.759419      2.191570
  H      -2.842408     -2.490648      1.901732
  H      -2.047267     -3.958386      1.271980
  H       5.026627      0.408236      0.242555
29
Coordinates from ORCA-job opt E -2748.939663317931
  C      -2.733780      3.743324     -0.279577
  C      -1.576080      2.866445     -0.686530
  O      -1.789856      1.550702     -0.131480
  P      -0.921070      0.301250     -0.584667
  S      -0.880282     -0.164338     -2.448195
  O      -1.431634     -0.773974      0.460942
  C      -1.585182     -2.182088      0.170001
  C      -1.913817     -2.884267      1.463771
  O       0.535780      0.814734      0.020247
  C       1.659882      0.079124     -0.004698
  N       1.566779     -1.225539     -0.146215
  C       2.650042     -1.976469     -0.158903
  Cl      2.414831     -3.678057     -0.354844
  C       3.931932     -1.438193     -0.018508
  Cl      5.343245     -2.427021     -0.030748
  C       4.044681     -0.055003      0.133577
  C       2.897922      0.724284      0.138050
  Cl      2.974017      2.436869      0.311282
  H      -2.803728      3.816966      0.815319
  H      -2.588893      4.754093     -0.687102
  H      -3.681067      3.343450     -0.669213
  H      -1.500815      2.778565     -1.782147
  H      -0.617871      3.249044     -0.302126
  H      -0.645374     -2.556516     -0.260474
  H      -2.387562     -2.296936     -0.574169
  H      -1.097983     -2.760935      2.190829
  H      -2.842005     -2.489705      1.902103
  H      -2.049144     -3.958289      1.271427
  H       5.027030      0.408481      0.242050
