15
Methamidophos P2R q=0
C     -2.43649715     0.87458194     0.26486284
O     -1.79825894    -0.38066582     0.38517661
P     -0.31763525    -0.51399999    -0.23890433
N     -0.04622409    -2.12618541    -0.26903028
O     -0.18738645     0.15848346    -1.57117546
S      1.06653170     0.27382373     1.10066765
C      2.47815063     0.68915829     0.06170027
H     -1.79911385     1.66999941     0.65996610
H     -2.67396489     1.07378631    -0.78348585
H     -3.36663795     0.85081588     0.83817815
H     -0.09858552    -2.53946564     0.65351885
H      0.86227603    -2.35858003    -0.64831880
H      3.29527712     1.06389128     0.68316914
H      2.82116481    -0.19774719    -0.47698047
H      2.20090379     1.46210379    -0.65934443
