27
Coordinates from ORCA-job opt E -867.508901380245
  C           0.34070495244698     -1.31472029531966      1.66755527029788
  C           0.20049806040674     -0.72606242421704      0.27484505303666
  O           1.00390190774175      0.48327274814229      0.23235517190631
  P           2.37663082657066      0.56262894713392     -0.57424477172831
  C           2.72998235198016      2.30210767552196     -0.64277385463981
  O           2.45867677084947     -0.23556833319801     -1.82035002949695
  F           3.43919645583986      0.02368508771985      0.50239883044138
  C          -1.22813877943865     -0.36843659068493     -0.19193825980712
  C          -1.88321021305569      0.64302327709480      0.75660482250990
  C          -2.06198487522459     -1.65601204581029     -0.24898595475125
  C          -1.14646283033642      0.23303015354566     -1.60292328324597
  H          -0.02488184739807     -0.61737068443755      2.43495128567330
  H           1.39975527678819     -1.52646818276921      1.87202593037321
  H          -0.21581137279654     -2.25778881161333      1.75300180169848
  H           0.62012445707125     -1.43182403342767     -0.46238004846678
  H           2.64372018011647      2.74156049134923      0.35930845544358
  H           3.74828003150964      2.44205860882969     -1.02945648911046
  H           2.01151109145743      2.77786617064239     -1.32380315761148
  H          -2.86518748684896      0.95068965394235      0.36459540116826
  H          -2.04436282377273      0.22012307309216      1.76000208918199
  H          -1.26245541314308      1.54611548471556      0.85905964801913
  H          -2.20446860003702     -2.10200144511753      0.74672755873392
  H          -1.58657209090345     -2.41035633419756     -0.89695146846039
  H          -3.05954170663227     -1.44019911706619     -0.66153141970523
  H          -0.60802293115212     -0.43775880406257     -2.29143798726848
  H          -0.62475359178124      1.20167461677621     -1.59829223564344
  H          -2.15712778025775      0.39673111341547     -2.00764438854833
