27
Coordinates from ORCA-job opt E -867.498053977344
  C       0.422698     -1.597986      1.388253
  C       0.301486     -0.568100      0.264813
  O       0.988406      0.609762      0.687794
  P       2.527529      0.820454      0.236837
  C       2.414147      1.502172     -1.403487
  O       3.354484     -0.428982      0.318364
  F       3.037547      1.878645      1.279620
  C      -1.166728     -0.199671     -0.117844
  C      -1.934433      0.413055      1.069337
  C      -1.929077     -1.441251     -0.616557
  C      -1.151647      0.841218     -1.257535
  H       0.001790     -1.221752      2.325934
  H       1.475637     -1.812409      1.598861
  H      -0.061486     -2.543994      1.133537
  H       0.800639     -0.971586     -0.625548
  H       1.799941      2.406541     -1.402314
  H       3.409387      1.767226     -1.770636
  H       1.973547      0.782655     -2.098331
  H      -2.941022      0.724507      0.766354
  H      -2.053588     -0.304202      1.887758
  H      -1.423633      1.296873      1.466340
  H      -2.077587     -2.175837      0.181364
  H      -1.390219     -1.932843     -1.434112
  H      -2.923153     -1.170069     -0.990778
  H      -0.606790      0.462698     -2.129383
  H      -0.678970      1.777656     -0.942827
  H      -2.168903      1.085219     -1.585097
27
Coordinates from ORCA-job opt E -867.503974303566
  C       0.382095     -1.619794      1.396929
  C       0.268427     -0.609157      0.263510
  O       0.973543      0.585499      0.648458
  P       2.505706      0.795784      0.189246
  C       2.442606      1.603975     -1.394259
  O       3.354902     -0.430878      0.239258
  F       2.973502      1.846353      1.265385
  C      -1.174402     -0.213763     -0.115924
  C      -1.903722      0.433219      1.070660
  C      -1.941882     -1.459564     -0.578917
  C      -1.122286      0.793038     -1.277321
  H      -0.034686     -1.217717      2.332372
  H       1.440347     -1.846692      1.589196
  H      -0.126561     -2.563083      1.155501
  H       0.746832     -1.038450     -0.634942
  H       1.821410      2.509792     -1.347424
  H       3.455147      1.886693     -1.715754
  H       2.017616      0.915752     -2.135816
  H      -2.908716      0.764991      0.768305
  H      -2.029894     -0.271570      1.907271
  H      -1.359756      1.313703      1.445556
  H      -2.094268     -2.178409      0.240697
  H      -1.409271     -1.978158     -1.393085
  H      -2.936598     -1.178373     -0.955361
  H      -0.590529      0.371811     -2.146394
  H      -0.611767      1.722071     -0.981880
  H      -2.137797      1.062929     -1.604548
27
Coordinates from ORCA-job opt E -867.506384383938
  C       0.392472     -1.621083      1.405577
  C       0.238039     -0.641364      0.256374
  O       0.971200      0.564775      0.592408
  P       2.499630      0.751083      0.139193
  C       2.513602      1.705142     -1.360288
  O       3.341987     -0.469278      0.149309
  F       2.936154      1.786482      1.256152
  C      -1.202034     -0.228708     -0.115923
  C      -1.904388      0.454268      1.062704
  C      -1.980232     -1.479386     -0.541148
  C      -1.140790      0.738895     -1.304141
  H      -0.003637     -1.198277      2.341880
  H       1.460750     -1.840064      1.553069
  H      -0.124870     -2.567702      1.196341
  H       0.693306     -1.089472     -0.647883
  H       1.907135      2.616498     -1.254829
  H       3.547313      1.977089     -1.620047
  H       2.094420      1.072670     -2.156407
  H      -2.906778      0.795553      0.756159
  H      -2.034419     -0.229759      1.916918
  H      -1.337812      1.332885      1.409376
  H      -2.139257     -2.177159      0.296025
  H      -1.457149     -2.024627     -1.346091
  H      -2.972250     -1.188499     -0.922681
  H      -0.621916      0.281657     -2.164711
  H      -0.612171      1.666966     -1.038022
  H      -2.158306      1.011418     -1.628595
27
Coordinates from ORCA-job opt E -867.506645913665
  C       0.384732     -1.620825      1.417341
  C       0.235248     -0.656089      0.254691
  O       0.977358      0.551171      0.574316
  P       2.501210      0.734042      0.116581
  C       2.518394      1.755591     -1.338711
  O       3.327966     -0.493998      0.072891
  F       2.957556      1.735755      1.264097
  C      -1.202279     -0.236834     -0.121014
  C      -1.896187      0.466945      1.050996
  C      -1.990971     -1.490247     -0.523690
  C      -1.136569      0.713548     -1.324299
  H      -0.012060     -1.185993      2.346811
  H       1.450786     -1.843106      1.565158
  H      -0.137948     -2.566406      1.217961
  H       0.687347     -1.113562     -0.644425
  H       1.925513      2.666688     -1.184192
  H       3.554689      2.019650     -1.589904
  H       2.084882      1.166240     -2.159594
  H      -2.897459      0.808620      0.744486
  H      -2.024575     -0.203622      1.914832
  H      -1.323165      1.346787      1.380848
  H      -2.147738     -2.175302      0.323345
  H      -1.477118     -2.048078     -1.323990
  H      -2.983418     -1.199302     -0.901852
  H      -0.624085      0.239586     -2.177910
  H      -0.599954      1.640619     -1.074247
  H      -2.152156      0.988123     -1.649809
27
Coordinates from ORCA-job opt E -867.506840707681
  C       0.377298     -1.610104      1.439372
  C       0.231149     -0.677048      0.250151
  O       0.985464      0.531990      0.536416
  P       2.504048      0.704526      0.073583
  C       2.531989      1.841162     -1.296386
  O       3.288852     -0.541335     -0.075351
  F       3.011935      1.620043      1.281235
  C      -1.204977     -0.253250     -0.129665
  C      -1.888394      0.486628      1.027666
  C      -2.009641     -1.509634     -0.495662
  C      -1.136454      0.666743     -1.357225
  H      -0.018937     -1.151609      2.356520
  H       1.441762     -1.834326      1.590279
  H      -0.150224     -2.557189      1.263274
  H       0.679632     -1.154785     -0.637815
  H       1.971990      2.751074     -1.049007
  H       3.574278      2.085984     -1.538180
  H       2.067031      1.342737     -2.158586
  H      -2.889351      0.825729      0.719905
  H      -2.012885     -0.159598      1.909321
  H      -1.307737      1.371156      1.328463
  H      -2.164452     -2.171518      0.368878
  H      -1.507491     -2.089696     -1.286099
  H      -3.002512     -1.219939     -0.871954
  H      -0.632720      0.166221     -2.199562
  H      -0.589328      1.593833     -1.133955
  H      -2.150326      0.942203     -1.684899
27
Coordinates from ORCA-job opt E -867.506899179267
  C       0.377837     -1.599251      1.442952
  C       0.228405     -0.677908      0.244924
  O       0.983344      0.533847      0.515388
  P       2.505883      0.699582      0.065156
  C       2.548504      1.853106     -1.290733
  O       3.277854     -0.553507     -0.096162
  F       3.021372      1.594372      1.286705
  C      -1.209323     -0.257533     -0.131645
  C      -1.891114      0.483546      1.026079
  C      -2.013420     -1.515296     -0.492891
  C      -1.146757      0.661240     -1.360397
  H      -0.015177     -1.132113      2.357157
  H       1.442593     -1.823463      1.593786
  H      -0.150252     -2.548102      1.277696
  H       0.675256     -1.163768     -0.639376
  H       1.991857      2.762451     -1.031975
  H       3.594308      2.095579     -1.520752
  H       2.087104      1.372438     -2.164602
  H      -2.893932      0.819945      0.721193
  H      -2.011093     -0.161175      1.909666
  H      -1.311420      1.370040      1.323559
  H      -2.163287     -2.175577      0.373915
  H      -1.512864     -2.095621     -1.284408
  H      -3.008476     -1.228237     -0.865621
  H      -0.643206      0.161460     -2.203571
  H      -0.601799      1.590208     -1.139181
  H      -2.162195      0.933736     -1.686144
27
Coordinates from ORCA-job opt E -867.506981543919
  C       0.380798     -1.579277      1.445322
  C       0.220830     -0.682526      0.230253
  O       0.978064      0.534466      0.463227
  P       2.509482      0.685653      0.042047
  C       2.586476      1.895697     -1.262030
  O       3.251564     -0.580386     -0.164975
  F       3.042940      1.512395      1.304791
  C      -1.220084     -0.267733     -0.136880
  C      -1.891882      0.489235      1.016539
  C      -2.026550     -1.529854     -0.473524
  C      -1.171379      0.633937     -1.378583
  H       0.001787     -1.092161      2.355227
  H       1.446129     -1.807629      1.590184
  H      -0.152657     -2.529684      1.306291
  H       0.660728     -1.187006     -0.647421
  H       2.035365      2.798325     -0.966614
  H       3.639372      2.138091     -1.460832
  H       2.135538      1.465882     -2.166936
  H      -2.897066      0.823394      0.716031
  H      -2.005354     -0.143925      1.909772
  H      -1.308518      1.378746      1.299281
  H      -2.163576     -2.178976      0.404254
  H      -1.534063     -2.118959     -1.264301
  H      -3.027163     -1.249146     -0.836775
  H      -0.669604      0.125941     -2.218723
  H      -0.630448      1.569072     -1.173258
  H      -2.190731      0.896429     -1.701650
27
Coordinates from ORCA-job opt E -867.507118576351
  C       0.381252     -1.552916      1.462405
  C       0.212274     -0.694808      0.221177
  O       0.975372      0.526318      0.400711
  P       2.511020      0.660442     -0.006032
  C       2.614499      1.962044     -1.215959
  O       3.211494     -0.611845     -0.306471
  F       3.083915      1.374364      1.308364
  C      -1.228978     -0.282644     -0.143574
  C      -1.890767      0.500750      0.997576
  C      -2.042052     -1.547955     -0.449856
  C      -1.183456      0.593649     -1.403489
  H       0.019239     -1.034061      2.361865
  H       1.446182     -1.788022      1.602477
  H      -0.161037     -2.503217      1.361339
  H       0.642686     -1.228417     -0.643911
  H       2.075031      2.847142     -0.852012
  H       3.672551      2.204771     -1.386926
  H       2.164068      1.613014     -2.154946
  H      -2.894912      0.836474      0.694796
  H      -2.005203     -0.114313      1.903553
  H      -1.300051      1.391233      1.262347
  H      -2.171453     -2.179769      0.441823
  H      -1.557935     -2.152804     -1.234181
  H      -3.045700     -1.271472     -0.808308
  H      -0.684992      0.068530     -2.235392
  H      -0.639433      1.531526     -1.218543
  H      -2.203615      0.851986     -1.728115
27
Coordinates from ORCA-job opt E -867.507481915483
  C       0.384789     -1.499213      1.484109
  C       0.198675     -0.714771      0.197836
  O       0.974428      0.507103      0.284857
  P       2.512599      0.614564     -0.108863
  C       2.670845      2.089739     -1.092397
  O       3.129441     -0.636094     -0.617870
  F       3.158802      1.076132      1.286368
  C      -1.245392     -0.309683     -0.160650
  C      -1.882911      0.535789      0.949580
  C      -2.071477     -1.582861     -0.387366
  C      -1.217496      0.500184     -1.465049
  H       0.053174     -0.923175      2.360281
  H       1.448601     -1.746892      1.616046
  H      -0.173238     -2.445536      1.452472
  H       0.612309     -1.299686     -0.641411
  H       2.164324      2.919319     -0.578976
  H       3.739315      2.316434     -1.216948
  H       2.213486      1.926511     -2.077005
  H      -2.888514      0.866634      0.645867
  H      -1.988932     -0.032422      1.886938
  H      -1.279866      1.432283      1.162686
  H      -2.180992     -2.168825      0.537985
  H      -1.607355     -2.227199     -1.152340
  H      -3.082566     -1.319145     -0.734557
  H      -0.729624     -0.067111     -2.275757
  H      -0.670351      1.445559     -1.336160
  H      -2.242072      0.742364     -1.788958
27
Coordinates from ORCA-job opt E -867.507902515419
  C       0.396523     -1.451004      1.495512
  C       0.190647     -0.719572      0.181380
  O       0.970642      0.501563      0.210075
  P       2.509193      0.585645     -0.184767
  C       2.708315      2.160497     -0.987996
  O       3.067710     -0.623253     -0.840129
  F       3.198786      0.853729      1.240184
  C      -1.257929     -0.326528     -0.174730
  C      -1.879667      0.559973      0.911481
  C      -2.087623     -1.606870     -0.343700
  C      -1.245122      0.434917     -1.508501
  H       0.091893     -0.834019      2.353343
  H       1.460066     -1.707482      1.616126
  H      -0.173083     -2.390563      1.516423
  H       0.591677     -1.338048     -0.639548
  H       2.237530      2.939686     -0.372508
  H       3.782176      2.365828     -1.098053
  H       2.234915      2.131579     -1.978040
  H      -2.886818      0.884356      0.606333
  H      -1.978575      0.025543      1.869165
  H      -1.271031      1.460637      1.086418
  H      -2.184978     -2.159700      0.603083
  H      -1.634957     -2.279324     -1.090813
  H      -3.103078     -1.354846     -0.686356
  H      -0.766572     -0.161521     -2.303153
  H      -0.697176      1.384501     -1.421522
  H      -2.273465      0.664275     -1.828987
27
Coordinates from ORCA-job opt E -867.508181080909
  C       0.408265     -1.406326      1.498628
  C       0.185221     -0.721239      0.161912
  O       0.965514      0.499305      0.140256
  P       2.501330      0.566640     -0.266326
  C       2.742757      2.224255     -0.863120
  O       2.998569     -0.571939     -1.077856
  F       3.233407      0.619275      1.162346
  C      -1.268040     -0.341563     -0.189651
  C      -1.871486      0.594197      0.865005
  C      -2.101261     -1.626978     -0.287782
  C      -1.274383      0.357687     -1.557064
  H       0.122963     -0.755874      2.338092
  H       1.471359     -1.667691      1.613059
  H      -0.167830     -2.339771      1.563286
  H       0.575790     -1.367517     -0.642482
  H       2.308676      2.932100     -0.143596
  H       3.821217      2.407767     -0.964383
  H       2.254481      2.339144     -1.839422
  H      -2.882104      0.907871      0.560234
  H      -1.957953      0.103283      1.846798
  H      -1.258373      1.499911      0.990153
  H      -2.184263     -2.137238      0.683889
  H      -1.661723     -2.333405     -1.010859
  H      -3.121757     -1.388926     -0.625159
  H      -0.808683     -0.275599     -2.330289
  H      -0.724392      1.309354     -1.522931
  H      -2.307300      0.573276     -1.872020
27
Coordinates from ORCA-job opt E -867.508375956835
  C       0.409323     -1.408161      1.494636
  C       0.188983     -0.715141      0.160056
  O       0.963323      0.510596      0.155332
  P       2.488969      0.568033     -0.297436
  C       2.744702      2.255539     -0.792669
  O       2.939954     -0.522414     -1.194037
  F       3.260551      0.503748      1.107514
  C      -1.266041     -0.344422     -0.196997
  C      -1.859238      0.626254      0.831838
  C      -2.103010     -1.630251     -0.249128
  C      -1.277268      0.308548     -1.586678
  H       0.114639     -0.762299      2.334183
  H       1.472593     -1.661858      1.613957
  H      -0.162826     -2.343981      1.550735
  H       0.580122     -1.356534     -0.648666
  H       2.366675      2.930292     -0.013622
  H       3.819867      2.422235     -0.941343
  H       2.209391      2.435639     -1.734311
  H      -2.872697      0.928997      0.525798
  H      -1.936855      0.168739      1.830003
  H      -1.245757      1.535736      0.917161
  H      -2.189184     -2.108713      0.737893
  H      -1.668671     -2.363406     -0.948033
  H      -3.122380     -1.399554     -0.594644
  H      -0.829814     -0.358060     -2.341721
  H      -0.714743      1.253318     -1.591857
  H      -2.310608      0.527121     -1.897246
27
Coordinates from ORCA-job opt E -867.508449203489
  C       0.417156     -1.369266      1.514271
  C       0.190153     -0.711478      0.161556
  O       0.951955      0.522768      0.123391
  P       2.459475      0.567179     -0.395265
  C       2.761836      2.296061     -0.663319
  O       2.820557     -0.404038     -1.452296
  F       3.293576      0.266789      0.941525
  C      -1.267265     -0.359823     -0.207216
  C      -1.853034      0.659211      0.778543
  C      -2.109283     -1.643426     -0.200398
  C      -1.276165      0.230913     -1.624124
  H       0.108938     -0.704997      2.334457
  H       1.482884     -1.602851      1.645241
  H      -0.142520     -2.310424      1.591780
  H       0.580005     -1.369776     -0.633970
  H       2.466020      2.873464      0.221398
  H       3.830884      2.444114     -0.864559
  H       2.175012      2.617907     -1.534352
  H      -2.870179      0.943959      0.467270
  H      -1.920878      0.250982      1.798364
  H      -1.241408      1.572867      0.809804
  H      -2.206203     -2.074688      0.806709
  H      -1.676286     -2.412465     -0.860625
  H      -3.124745     -1.424362     -0.564813
  H      -0.854521     -0.481430     -2.351188
  H      -0.689311      1.159799     -1.677324
  H      -2.306653      0.463011     -1.934140
27
Coordinates from ORCA-job opt E -867.508536034446
  C       0.405220     -1.371796      1.532340
  C       0.191442     -0.714537      0.178445
  O       0.959718      0.516265      0.142512
  P       2.461598      0.561984     -0.392602
  C       2.750819      2.286657     -0.702431
  O       2.818679     -0.427619     -1.434422
  F       3.310536      0.297749      0.943298
  C      -1.262432     -0.357192     -0.201071
  C      -1.862150      0.644142      0.794545
  C      -2.102673     -1.641396     -0.224939
  C      -1.256441      0.257960     -1.608069
  H       0.086377     -0.709093      2.349852
  H       1.470409     -1.602709      1.673715
  H      -0.153424     -2.314475      1.602823
  H       0.585464     -1.374357     -0.613422
  H       2.459756      2.881092      0.172795
  H       3.816907      2.436210     -0.918724
  H       2.153451      2.586366     -1.574185
  H      -2.877140      0.930383      0.477611
  H      -1.938810      0.219057      1.806886
  H      -1.254018      1.559241      0.848154
  H      -2.211000     -2.087757      0.774648
  H      -1.659366     -2.399106     -0.891401
  H      -3.113869     -1.418384     -0.598794
  H      -0.824651     -0.440744     -2.342665
  H      -0.670762      1.188457     -1.637683
  H      -2.283641      0.493602     -1.926498
27
Coordinates from ORCA-job opt E -867.508650175206
  C       0.386448     -1.361498      1.565593
  C       0.194271     -0.717876      0.204010
  O       0.971874      0.507982      0.167096
  P       2.449885      0.557581     -0.431980
  C       2.742021      2.289592     -0.698174
  O       2.750355     -0.396259     -1.524279
  F       3.354450      0.240166      0.856894
  C      -1.253984     -0.357844     -0.197405
  C      -1.870104      0.641411      0.790402
  C      -2.092571     -1.642338     -0.234723
  C      -1.227977      0.259083     -1.604131
  H       0.042446     -0.697054      2.371411
  H       1.451497     -1.578562      1.730048
  H      -0.164299     -2.309662      1.629849
  H       0.596365     -1.385965     -0.576345
  H       2.499728      2.857033      0.209439
  H       3.797216      2.436762     -0.964312
  H       2.105473      2.622952     -1.529167
  H      -2.882248      0.923967      0.461430
  H      -1.957445      0.215307      1.801486
  H      -1.265552      1.558600      0.853404
  H      -2.217073     -2.087191      0.764003
  H      -1.635830     -2.399680     -0.892471
  H      -3.097390     -1.421411     -0.626553
  H      -0.784284     -0.438553     -2.332943
  H      -0.642860      1.189887     -1.623381
  H      -2.250409      0.493570     -1.938482
27
Coordinates from ORCA-job opt E -867.508730271327
  C       0.362264     -1.349348      1.611466
  C       0.198169     -0.725264      0.238547
  O       0.989532      0.492723      0.201923
  P       2.422624      0.558066     -0.497133
  C       2.728133      2.299964     -0.671933
  O       2.624122     -0.321525     -1.672520
  F       3.411099      0.137819      0.699228
  C      -1.240438     -0.360887     -0.193614
  C      -1.873494      0.647995      0.773099
  C      -2.081075     -1.643895     -0.237399
  C      -1.185409      0.244876     -1.604563
  H      -0.008759     -0.680626      2.401473
  H       1.425667     -1.551656      1.803640
  H      -0.180450     -2.302645      1.671823
  H       0.610114     -1.406573     -0.524959
  H       2.558706      2.810603      0.284892
  H       3.764462      2.449253     -1.003633
  H       2.042500      2.695268     -1.433799
  H      -2.877964      0.931190      0.422049
  H      -1.982462      0.229835      1.785458
  H      -1.266874      1.563704      0.843659
  H      -2.226786     -2.077936      0.763444
  H      -1.609868     -2.407711     -0.877373
  H      -3.077078     -1.426425     -0.652994
  H      -0.721313     -0.456181     -2.317565
  H      -0.604533      1.178523     -1.617489
  H      -2.200890      0.470852     -1.965010
27
Coordinates from ORCA-job opt E -867.508812311217
  C       0.347983     -1.348670      1.637962
  C       0.200682     -0.732004      0.259481
  O       1.002097      0.479802      0.230325
  P       2.400855      0.562141     -0.531743
  C       2.714831      2.306950     -0.657451
  O       2.539406     -0.274523     -1.747403
  F       3.438656      0.090466      0.602149
  C      -1.230240     -0.362703     -0.192036
  C      -1.869779      0.655267      0.760100
  C      -2.075434     -1.643150     -0.238033
  C      -1.156192      0.234307     -1.605617
  H      -0.031709     -0.677132      2.421367
  H       1.409623     -1.548829      1.841710
  H      -0.194445     -2.302190      1.696795
  H       0.618102     -1.420411     -0.494873
  H       2.597003      2.781901      0.325209
  H       3.735408      2.459535     -1.033561
  H       1.997109      2.736705     -1.369352
  H      -2.866269      0.945243      0.392242
  H      -1.997853      0.243059      1.772761
  H      -1.256699      1.566266      0.836570
  H      -2.233375     -2.069964      0.763997
  H      -1.598744     -2.412387     -0.867459
  H      -3.066134     -1.425638     -0.666073
  H      -0.674004     -0.466544     -2.306609
  H      -0.583541      1.173377     -1.615199
  H      -2.167337      0.449123     -1.984541
27
Coordinates from ORCA-job opt E -867.508796063708
  C       0.331101     -1.340485      1.674899
  C       0.203598     -0.739874      0.285849
  O       1.018083      0.463122      0.263182
  P       2.360151      0.574953     -0.587629
  C       2.704997      2.317964     -0.619752
  O       2.395370     -0.182171     -1.862114
  F       3.462177      0.009301      0.435996
  C      -1.216657     -0.368231     -0.192570
  C      -1.862705      0.667569      0.734233
  C      -2.067579     -1.646127     -0.232914
  C      -1.119233      0.208642     -1.612510
  H      -0.052709     -0.659308      2.447884
  H       1.390190     -1.541445      1.889879
  H      -0.214100     -2.291757      1.740329
  H       0.627133     -1.442292     -0.452680
  H       2.668609      2.724445      0.399320
  H       3.700719      2.475387     -1.055505
  H       1.949777      2.810748     -1.246669
  H      -2.846643      0.967076      0.340973
  H      -2.018783      0.269731      1.748884
  H      -1.239335      1.571167      0.813964
  H      -2.238740     -2.058384      0.772762
  H      -1.585393     -2.425631     -0.845400
  H      -3.052439     -1.431441     -0.675494
  H      -0.609398     -0.492365     -2.292946
  H      -0.563182      1.158266     -1.624548
  H      -2.125009      0.401140     -2.016706
27
Coordinates from ORCA-job opt E -867.508828772867
  C       0.348755     -1.330997      1.648500
  C       0.199289     -0.727891      0.259703
  O       1.002581      0.480615      0.232075
  P       2.377283      0.575276     -0.563522
  C       2.727779      2.315123     -0.613174
  O       2.468330     -0.216878     -1.813169
  F       3.434327      0.031251      0.511716
  C      -1.229503     -0.369893     -0.199568
  C      -1.864944      0.662506      0.737973
  C      -2.072985     -1.653547     -0.225178
  C      -1.160567      0.207544     -1.620263
  H      -0.011511     -0.643930      2.427867
  H       1.409579     -1.542055      1.842282
  H      -0.201059     -2.277801      1.730270
  H       0.616892     -1.430161     -0.482901
  H       2.644526      2.740275      0.395131
  H       3.746367      2.460169     -0.996269
  H       2.007397      2.799901     -1.285466
  H      -2.854419      0.960350      0.357151
  H      -2.007044      0.265389      1.754943
  H      -1.243721      1.567841      0.805384
  H      -2.222216     -2.070066      0.781732
  H      -1.600598     -2.429909     -0.848950
  H      -3.067746     -1.442872     -0.646744
  H      -0.655615     -0.485996     -2.310495
  H      -0.615705      1.163719     -1.643462
  H      -2.175473      0.392036     -2.004847
27
Coordinates from ORCA-job opt E -867.508849924866
  C       0.339272     -1.343139      1.650141
  C       0.203174     -0.733898      0.267377
  O       1.008569      0.474880      0.239995
  P       2.393759      0.561384     -0.545718
  C       2.711441      2.305967     -0.658994
  O       2.515211     -0.267021     -1.768585
  F       3.446669      0.078936      0.567744
  C      -1.225660     -0.364531     -0.192379
  C      -1.868919      0.651272      0.760532
  C      -2.070403     -1.644600     -0.244078
  C      -1.148122      0.237025     -1.603668
  H      -0.043538     -0.664736      2.425999
  H       1.399614     -1.543743      1.860718
  H      -0.205215     -2.295298      1.713128
  H       0.623256     -1.428918     -0.479047
  H       2.609432      2.771236      0.330034
  H       3.728098      2.457904     -1.045918
  H       1.986198      2.746496     -1.356515
  H      -2.860027      0.950052      0.385055
  H      -2.009001      0.234137      1.769412
  H      -1.251149      1.558310      0.846809
  H      -2.229912     -2.075733      0.755915
  H      -1.593381     -2.411632     -0.875812
  H      -3.060408     -1.425032     -0.672629
  H      -0.645759     -0.451607     -2.302250
  H      -0.593594      1.186844     -1.605716
  H      -2.159607      0.435446     -1.990832
27
Coordinates from ORCA-job opt E -867.508882411192
  C       0.343153     -1.331102      1.659411
  C       0.200744     -0.733297      0.270961
  O       1.004852      0.475300      0.233030
  P       2.375828      0.569320     -0.573026
  C       2.718606      2.311952     -0.628267
  O       2.458617     -0.218023     -1.826500
  F       3.443922      0.031650      0.500289
  C      -1.226376     -0.368941     -0.193373
  C      -1.871437      0.658407      0.745039
  C      -2.070410     -1.650575     -0.234278
  C      -1.142902      0.216850     -1.610498
  H      -0.020484     -0.641280      2.434290
  H       1.402948     -1.544452      1.859447
  H      -0.212310     -2.275545      1.737987
  H       0.621274     -1.434377     -0.470294
  H       2.637800      2.738756      0.379984
  H       3.733462      2.461158     -1.021066
  H       1.992203      2.792115     -1.297554
  H      -2.855796      0.962645      0.356379
  H      -2.026072      0.250557      1.755694
  H      -1.247381      1.561125      0.831675
  H      -2.225060     -2.074954      0.769184
  H      -1.594156     -2.421126     -0.862490
  H      -3.062614     -1.435531     -0.660076
  H      -0.625641     -0.473076     -2.297103
  H      -0.599769      1.173767     -1.619185
  H      -2.153001      0.398679     -2.008945
27
Coordinates from ORCA-job opt E -867.508892372582
  C       0.341780     -1.330879      1.658941
  C       0.200999     -0.731051      0.270395
  O       1.006073      0.476949      0.237958
  P       2.378636      0.567292     -0.565934
  C       2.719267      2.309297     -0.636671
  O       2.467813     -0.232791     -1.810576
  F       3.442897      0.039625      0.513851
  C      -1.226310     -0.367987     -0.193929
  C      -1.871183      0.654136      0.749676
  C      -2.068799     -1.650792     -0.239196
  C      -1.145532      0.223787     -1.608753
  H      -0.027758     -0.643100      2.433141
  H       1.401728     -1.538987      1.862328
  H      -0.208951     -2.277971      1.735440
  H       0.620493     -1.432698     -0.471103
  H       2.635871      2.746796      0.366513
  H       3.734690      2.456513     -1.028063
  H       1.993602      2.781063     -1.312710
  H      -2.857083      0.957219      0.364010
  H      -2.022550      0.242922      1.759566
  H      -1.249527      1.558084      0.836263
  H      -2.222940     -2.079678      0.762172
  H      -1.592545     -2.418657     -0.870556
  H      -3.061330     -1.435120     -0.663701
  H      -0.628913     -0.462084     -2.299057
  H      -0.603853      1.181593     -1.615012
  H      -2.156577      0.406520     -2.004275
27
Coordinates from ORCA-job opt E -867.508896718000
  C       0.340705     -1.329045      1.661119
  C       0.201179     -0.730925      0.272136
  O       1.006564      0.476977      0.238084
  P       2.378473      0.565983     -0.567663
  C       2.719682      2.307939     -0.639394
  O       2.465895     -0.233944     -1.812505
  F       3.443856      0.038218      0.511519
  C      -1.226127     -0.367756     -0.193143
  C      -1.873274      0.652265      0.751424
  C      -2.067426     -1.651014     -0.241477
  C      -1.144091      0.226258     -1.607067
  H      -0.029340     -0.640062      2.433941
  H       1.400453     -1.537397      1.865701
  H      -0.210969     -2.275676      1.738003
  H       0.620949     -1.433058     -0.468578
  H       2.636312      2.746207      0.363517
  H       3.735028      2.454628     -1.031359
  H       1.994147      2.779434     -1.315795
  H      -2.858268      0.956519      0.364350
  H      -2.026928      0.238333      1.759805
  H      -1.251547      1.555909      0.841925
  H      -2.220585     -2.082928      0.758845
  H      -1.590817     -2.416538     -0.875400
  H      -3.060376     -1.434947     -0.664851
  H      -0.622977     -0.456938     -2.296805
  H      -0.605776      1.185871     -1.610446
  H      -2.154741      0.405689     -2.005169
27
Coordinates from ORCA-job opt E -867.508900874500
  C       0.339267     -1.321892      1.666688
  C       0.201066     -0.729149      0.275641
  O       1.006414      0.478840      0.237100
  P       2.376662      0.563461     -0.572818
  C       2.723276      2.304394     -0.643589
  O       2.458312     -0.235064     -1.818857
  F       3.443480      0.030580      0.502891
  C      -1.226408     -0.367759     -0.191772
  C      -1.879002      0.647059      0.754925
  C      -2.063802     -1.653065     -0.246949
  C      -1.142323      0.231354     -1.603555
  H      -0.029703     -0.628514      2.436016
  H       1.398534     -1.531619      1.872555
  H      -0.215064     -2.266760      1.747230
  H       0.621023     -1.433496     -0.462702
  H       2.640311      2.742917      0.359275
  H       3.739287      2.448027     -1.035098
  H       1.999868      2.778188     -1.320702
  H      -2.861515      0.954337      0.363928
  H      -2.038676      0.226992      1.759749
  H      -1.257211      1.549859      0.854330
  H      -2.212376     -2.093371      0.750482
  H      -1.587048     -2.412058     -0.888531
  H      -3.058764     -1.436652     -0.665446
  H      -0.608754     -0.443922     -2.291671
  H      -0.614567      1.196727     -1.600566
  H      -2.152286      0.400586     -2.007838
27
Coordinates from ORCA-job opt E -867.508899431678
  C       0.339664     -1.317513      1.668012
  C       0.200757     -0.727380      0.275927
  O       1.005284      0.481158      0.234727
  P       2.376934      0.562078     -0.573602
  C       2.726691      2.302237     -0.645610
  O       2.459208     -0.238019     -1.818499
  F       3.441520      0.027934      0.503647
  C      -1.227342     -0.367832     -0.191416
  C      -1.882304      0.643813      0.757119
  C      -2.062192     -1.654609     -0.249574
  C      -1.143943      0.234196     -1.602060
  H      -0.027648     -0.621660      2.435897
  H       1.398769     -1.528326      1.873467
  H      -0.216092     -2.261295      1.751277
  H       0.620458     -1.432705     -0.461599
  H       2.641047      2.742716      0.356139
  H       3.744216      2.443567     -1.033970
  H       2.006411      2.775982     -1.326111
  H      -2.864037      0.952141      0.364996
  H      -2.043935      0.220554      1.760261
  H      -1.260971      1.546503      0.860308
  H      -2.206874     -2.099906      0.746202
  H      -1.586064     -2.409683     -0.896187
  H      -3.058836     -1.438215     -0.664051
  H      -0.605265     -0.436843     -2.290276
  H      -0.621413      1.202373     -1.596407
  H      -2.154041      0.398737     -2.007900
27
Coordinates from ORCA-job opt E -867.508898688367
  C       0.340295     -1.314993      1.668150
  C       0.200523     -0.726314      0.275432
  O       1.004341      0.482709      0.233045
  P       2.376539      0.562269     -0.574473
  C       2.729222      2.301861     -0.643957
  O       2.458150     -0.236496     -1.820245
  F       3.439888      0.024460      0.502018
  C      -1.227936     -0.368237     -0.191701
  C      -1.883354      0.642883      0.756982
  C      -2.061773     -1.655756     -0.249570
  C      -1.145570      0.233774     -1.602430
  H      -0.025510     -0.617696      2.435480
  H       1.399322     -1.526696      1.872867
  H      -0.216286     -2.258063      1.753324
  H       0.620124     -1.432196     -0.461671
  H       2.643178      2.741517      0.358072
  H       3.747387      2.441969     -1.030975
  H       2.010434      2.777327     -1.324843
  H      -2.864959      0.951175      0.364526
  H      -2.045305      0.219368      1.759985
  H      -1.262297      1.545677      0.860449
  H      -2.204310     -2.102290      0.745911
  H      -1.586265     -2.409737     -0.897888
  H      -3.059323     -1.439748     -0.662039
  H      -0.605706     -0.436245     -2.290610
  H      -0.624824      1.202930     -1.596967
  H      -2.155986      0.396546     -2.008153
27
Coordinates from ORCA-job opt E -867.508901380245
  C       0.340705     -1.314720      1.667555
  C       0.200498     -0.726062      0.274845
  O       1.003902      0.483273      0.232355
  P       2.376631      0.562629     -0.574245
  C       2.729982      2.302108     -0.642774
  O       2.458677     -0.235568     -1.820350
  F       3.439196      0.023685      0.502399
  C      -1.228139     -0.368437     -0.191938
  C      -1.883210      0.643023      0.756605
  C      -2.061985     -1.656012     -0.248986
  C      -1.146463      0.233030     -1.602923
  H      -0.024882     -0.617371      2.434951
  H       1.399755     -1.526468      1.872026
  H      -0.215811     -2.257789      1.753002
  H       0.620124     -1.431824     -0.462380
  H       2.643720      2.741560      0.359308
  H       3.748280      2.442059     -1.029456
  H       2.011511      2.777866     -1.323803
  H      -2.865187      0.950690      0.364595
  H      -2.044363      0.220123      1.760002
  H      -1.262455      1.546115      0.859060
  H      -2.204469     -2.102001      0.746728
  H      -1.586572     -2.410356     -0.896951
  H      -3.059542     -1.440199     -0.661531
  H      -0.608023     -0.437759     -2.291438
  H      -0.624754      1.201675     -1.598292
  H      -2.157128      0.396731     -2.007644
