42
VX P3S q=0
C      2.39853603    -1.64570616     2.13193571
C      2.47318270    -0.84976535     0.84479862
O      2.32767426     0.52427532     1.15662172
P      2.64929115     1.64596937     0.03678215
C      4.42884930     1.54600118    -0.15662458
O      2.24207503     3.01824268     0.49941371
S      1.75416558     1.20567759    -1.79513998
C      0.14499779     2.05068012    -1.70834405
C     -0.75377743     1.61266161    -0.53314704
N     -1.00406587     0.15864103    -0.39236728
C     -1.34103643    -0.19559100     1.00630284
C     -1.43715141    -1.69780026     1.28879046
C     -2.54896582     0.52552239     1.62608417
C     -1.77904689    -0.40331188    -1.51626220
C     -3.30256603    -0.35745897    -1.39921310
C     -1.30424633    -1.81457306    -1.88686494
H      2.48604639    -2.71752622     1.93355915
H      3.19986164    -1.34656767     2.81569389
H      1.45271918    -1.45780503     2.65023281
H      3.43322265    -1.03098509     0.35486077
H      1.67053489    -1.15707825     0.16951935
H      4.77538902     2.32567805    -0.84120275
H      4.73879267     0.57977395    -0.56218657
H      4.92267760     1.69270708     0.80801186
H      0.33695239     3.12599623    -1.62421554
H     -0.36169217     1.90544865    -2.66667573
H     -0.28159637     1.99158761     0.38199111
H     -1.70865671     2.14694323    -0.61878606
H     -0.47487085     0.13011103     1.59950600
H     -2.35010256    -2.13976050     0.88126578
H     -1.44881733    -1.87886348     2.37006105
H     -0.57070914    -2.23367127     0.88825484
H     -2.59625911     0.31706812     2.70158852
H     -3.49972965     0.20180459     1.19826880
H     -2.47802910     1.61226509     1.52252264
H     -1.54667688     0.18207257    -2.41254398
H     -3.76173810    -0.63921402    -2.35401951
H     -3.68355683    -1.05304049    -0.64711409
H     -3.65286803     0.65210104    -1.16199197
H     -1.66531141    -2.58184140    -1.19899188
H     -1.67299060    -2.08400636    -2.88365515
H     -0.21050723    -1.86666205    -1.92332442
