15
Coordinates from ORCA-job opt E -1025.323298064312
  C          -2.29311428766375      0.91841531685628      0.34334120598042
  O          -1.70940652896526     -0.38207199103932      0.28451781674666
  P          -0.24862297389268     -0.59995431128585     -0.35273222041181
  N          -0.15358235337572     -2.24924092586873     -0.26312116536034
  O           0.00066465107258     -0.06430912579452     -1.71988258749063
  S           0.97121006725792      0.35029452336925      1.08425614974201
  C           2.38563778060617      0.81678591590785      0.04410202105566
  H          -1.69275056901503      1.58685996027765      0.97903131266514
  H          -2.37572789109126      1.35110101727539     -0.66437798588640
  H          -3.29310493084931      0.80128405411348      0.77688452212685
  H          -0.26763600570594     -2.65718697000574      0.66276601130082
  H           0.65972794904655     -2.63683069766964     -0.73713292315807
  H           3.01627280399179      1.47076744112291      0.66026461241975
  H           2.96350921197369     -0.06677546573477     -0.25629906544483
  H           2.03692306661023      1.36086126847577     -0.84161771428524
