15
Coordinates from ORCA-job opt E -1025.314212277987
  C      -2.436497      0.874582      0.264863
  O      -1.798259     -0.380666      0.385177
  P      -0.317635     -0.514000     -0.238904
  N      -0.046224     -2.126185     -0.269030
  O      -0.187386      0.158483     -1.571175
  S       1.066532      0.273824      1.100668
  C       2.478151      0.689158      0.061700
  H      -1.799114      1.669999      0.659966
  H      -2.673965      1.073786     -0.783486
  H      -3.366638      0.850816      0.838178
  H      -0.098586     -2.539466      0.653519
  H       0.862276     -2.358580     -0.648319
  H       3.295277      1.063891      0.683169
  H       2.821165     -0.197747     -0.476980
  H       2.200904      1.462104     -0.659344
15
Coordinates from ORCA-job opt E -1025.320540093546
  C      -2.364876      0.895388      0.276957
  O      -1.750042     -0.388625      0.346473
  P      -0.277431     -0.554739     -0.277885
  N      -0.088158     -2.192800     -0.267756
  O      -0.110116      0.087018     -1.618318
  S       1.033944      0.283662      1.122978
  C       2.417507      0.747460      0.058598
  H      -1.714359      1.668821      0.713589
  H      -2.597293      1.152851     -0.765950
  H      -3.297371      0.851397      0.852439
  H      -0.182749     -2.605752      0.662644
  H       0.808088     -2.484221     -0.659361
  H       3.203442      1.171408      0.695807
  H       2.816586     -0.131962     -0.464601
  H       2.102827      1.500094     -0.675613
15
Coordinates from ORCA-job opt E -1025.322753148909
  C      -2.306506      0.907166      0.299385
  O      -1.712217     -0.393212      0.307776
  P      -0.248735     -0.584873     -0.325891
  N      -0.129595     -2.239682     -0.270151
  O      -0.039786      0.010313     -1.677337
  S       0.987665      0.320151      1.121108
  C       2.377193      0.796225      0.056138
  H      -1.643507      1.647913      0.774766
  H      -2.530859      1.222079     -0.730198
  H      -3.237569      0.837381      0.874734
  H      -0.258989     -2.641854      0.658466
  H       0.741579     -2.583106     -0.673973
  H       3.108613      1.287833      0.711694
  H       2.844261     -0.083904     -0.405906
  H       2.048450      1.497571     -0.720611
15
Coordinates from ORCA-job opt E -1025.323004645178
  C      -2.299256      0.909679      0.309176
  O      -1.706849     -0.390707      0.299164
  P      -0.245310     -0.592597     -0.339811
  N      -0.145057     -2.248998     -0.271392
  O      -0.018630     -0.019479     -1.695915
  S       0.979663      0.329445      1.111543
  C       2.379248      0.810349      0.057215
  H      -1.634564      1.640874      0.795208
  H      -2.519845      1.239487     -0.716288
  H      -3.231016      0.831146      0.881647
  H      -0.276885     -2.647732      0.657642
  H       0.711964     -2.609881     -0.689254
  H       3.086453      1.332265      0.715670
  H       2.873098     -0.069907     -0.374707
  H       2.046985      1.486059     -0.739899
15
Coordinates from ORCA-job opt E -1025.323132932897
  C      -2.297641      0.912407      0.320177
  O      -1.705607     -0.386210      0.290891
  P      -0.244670     -0.598689     -0.351079
  N      -0.157038     -2.253830     -0.272445
  O       0.001738     -0.048396     -1.711639
  S       0.975663      0.335901      1.098771
  C       2.385999      0.820395      0.058491
  H      -1.635268      1.633436      0.823169
  H      -2.509282      1.260312     -0.701111
  H      -3.234222      0.824012      0.882775
  H      -0.286939     -2.651416      0.656561
  H       0.683613     -2.629825     -0.708102
  H       3.065840      1.380568      0.713735
  H       2.908334     -0.060643     -0.335851
  H       2.049480      1.461978     -0.764342
15
Coordinates from ORCA-job opt E -1025.323183309240
  C      -2.298453      0.914238      0.328438
  O      -1.707217     -0.383365      0.283682
  P      -0.245593     -0.599116     -0.356622
  N      -0.158624     -2.252124     -0.273653
  O       0.010747     -0.058722     -1.719192
  S       0.971820      0.341935      1.090664
  C       2.389285      0.820041      0.058230
  H      -1.641989      1.625671      0.852281
  H      -2.497130      1.280698     -0.689044
  H      -3.242707      0.817366      0.876587
  H      -0.285976     -2.651810      0.654486
  H       0.673323     -2.633524     -0.720302
  H       3.047685      1.415952      0.703494
  H       2.933325     -0.063721     -0.298688
  H       2.051502      1.426482     -0.790362
15
Coordinates from ORCA-job opt E -1025.323222498301
  C      -2.299815      0.917028      0.342746
  O      -1.710548     -0.379224      0.270835
  P      -0.247226     -0.596508     -0.363836
  N      -0.156797     -2.245955     -0.275860
  O       0.020033     -0.066319     -1.728849
  S       0.964350      0.354163      1.079506
  C       2.392455      0.814205      0.056070
  H      -1.659425      1.607610      0.912249
  H      -2.466299      1.321119     -0.666399
  H      -3.261863      0.804551      0.855959
  H      -0.279478     -2.651305      0.650032
  H       0.662586     -2.632949     -0.739508
  H       3.012228      1.476625      0.673958
  H       2.974854     -0.071857     -0.227152
  H       2.054944      1.348814     -0.839749
15
Coordinates from ORCA-job opt E -1025.323251016823
  C      -2.298021      0.917548      0.341002
  O      -1.710141     -0.379813      0.272294
  P      -0.246587     -0.597246     -0.359856
  N      -0.155536     -2.246740     -0.273310
  O       0.017254     -0.063294     -1.724618
  S       0.967332      0.349558      1.083288
  C       2.389588      0.814247      0.054192
  H      -1.662869      1.605820      0.919107
  H      -2.453416      1.324642     -0.668733
  H      -3.265530      0.805389      0.844033
  H      -0.278090     -2.653470      0.652074
  H       0.664468     -2.632910     -0.736722
  H       3.014407      1.472038      0.672024
  H       2.969714     -0.070362     -0.238362
  H       2.047426      1.354593     -0.836414
15
Coordinates from ORCA-job opt E -1025.323277965242
  C      -2.289634      0.919987      0.342736
  O      -1.710614     -0.381422      0.268597
  P      -0.245867     -0.601617     -0.354999
  N      -0.154215     -2.250590     -0.265245
  O       0.013390     -0.065895     -1.721104
  S       0.969172      0.344451      1.086590
  C       2.380942      0.817297      0.046896
  H      -1.676843      1.586352      0.968778
  H      -2.392907      1.355623     -0.661843
  H      -3.280896      0.804280      0.796516
  H      -0.275763     -2.659888      0.659159
  H       0.662140     -2.639179     -0.733222
  H       3.005532      1.481785      0.657979
  H       2.967427     -0.062680     -0.247623
  H       2.028138      1.351498     -0.843215
15
Coordinates from ORCA-job opt E -1025.323290203483
  C      -2.290842      0.919146      0.340586
  O      -1.709327     -0.381768      0.274294
  P      -0.245880     -0.601603     -0.353551
  N      -0.155499     -2.251384     -0.264563
  O       0.009633     -0.065011     -1.719666
  S       0.971749      0.343624      1.087828
  C       2.382828      0.818694      0.047137
  H      -1.676791      1.591098      0.959355
  H      -2.397553      1.346744     -0.667057
  H      -3.280336      0.804588      0.798412
  H      -0.275898     -2.659855      0.660376
  H       0.660881     -2.639898     -0.732712
  H       3.013847      1.471475      0.664251
  H       2.962468     -0.061677     -0.259386
  H       2.030720      1.365826     -0.835303
15
Coordinates from ORCA-job opt E -1025.323290802491
  C      -2.291200      0.919062      0.341506
  O      -1.709019     -0.381699      0.277387
  P      -0.246477     -0.601933     -0.353604
  N      -0.156265     -2.251789     -0.263585
  O       0.007432     -0.066770     -1.720277
  S       0.972386      0.344993      1.086571
  C       2.384125      0.819652      0.046035
  H      -1.681460      1.589424      0.966161
  H      -2.389310      1.348592     -0.666172
  H      -3.284310      0.803452      0.791042
  H      -0.274741     -2.659850      0.661711
  H       0.658013     -2.641279     -0.734463
  H       3.014584      1.472134      0.663998
  H       2.963730     -0.060921     -0.259794
  H       2.032511      1.366933     -0.836515
15
Coordinates from ORCA-job opt E -1025.323292967764
  C      -2.291526      0.918998      0.342771
  O      -1.709202     -0.381824      0.280553
  P      -0.247535     -0.601849     -0.353576
  N      -0.155795     -2.251478     -0.262813
  O       0.004575     -0.067461     -1.720679
  S       0.972115      0.347073      1.085005
  C       2.384808      0.819481      0.044692
  H      -1.687159      1.586867      0.975267
  H      -2.379096      1.351733     -0.664503
  H      -3.289141      0.802461      0.781885
  H      -0.272130     -2.659259      0.662830
  H       0.657089     -2.640995     -0.735963
  H       3.014431      1.473094      0.662277
  H       2.964524     -0.061902     -0.258484
  H       2.034042      1.365059     -0.839262
15
Coordinates from ORCA-job opt E -1025.323293115881
  C      -2.292166      0.918772      0.343164
  O      -1.709346     -0.381963      0.282590
  P      -0.248143     -0.601115     -0.353209
  N      -0.154798     -2.250551     -0.262803
  O       0.002605     -0.066278     -1.720368
  S       0.971747      0.348537      1.084499
  C       2.385167      0.818377      0.044234
  H      -1.690201      1.586457      0.978139
  H      -2.376126      1.351997     -0.664211
  H      -3.291423      0.801919      0.778441
  H      -0.269959     -2.658361      0.662984
  H       0.658118     -2.639262     -0.736552
  H       3.015117      1.472240      0.661217
  H       2.964131     -0.063970     -0.257581
  H       2.035278      1.363201     -0.840544
15
Coordinates from ORCA-job opt E -1025.323298064312
  C      -2.293114      0.918415      0.343341
  O      -1.709407     -0.382072      0.284518
  P      -0.248623     -0.599954     -0.352732
  N      -0.153582     -2.249241     -0.263121
  O       0.000665     -0.064309     -1.719883
  S       0.971210      0.350295      1.084256
  C       2.385638      0.816786      0.044102
  H      -1.692751      1.586860      0.979031
  H      -2.375728      1.351101     -0.664378
  H      -3.293105      0.801284      0.776885
  H      -0.267636     -2.657187      0.662766
  H       0.659728     -2.636831     -0.737133
  H       3.016273      1.470767      0.660265
  H       2.963509     -0.066775     -0.256299
  H       2.036923      1.360861     -0.841618
