21
Coordinates from ORCA-job opt E -788.947495661680
  C          -1.42561941930606      1.86263766016837     -0.26868837548104
  C          -1.81814147709394      0.43495514742645      0.10322622760603
  C          -1.58088830278076     -0.59789877107479     -1.00057857788830
  C          -0.13872893799373     -0.72967657578933     -1.44996695334160
  O           0.68029432294866     -1.12836544031722     -0.33144629213812
  P           2.00459971727598     -0.34904572180040      0.09429026641790
  C           2.23364113882791     -0.79090677646171      1.79929536802426
  O           2.08198093534818      1.08054744436090     -0.29221517397011
  F           3.15178464459107     -1.18909494575114     -0.64556392131711
  H          -0.33785390702143      1.95880578659717     -0.40779144444876
  H          -1.91784488702785      2.18413616604087     -1.20122161709081
  H          -1.71763858467190      2.56941920401084      0.52293323527630
  H          -1.26750137916021      0.12539329378238      1.00837268350726
  H          -2.88564973818762      0.40379707913495      0.37681235969181
  H          -2.17474563363634     -0.33966158305973     -1.89444566015083
  H          -1.93615837608772     -1.58610403611948     -0.66447770057269
  H           0.24838603064134      0.21603002541182     -1.85894661839910
  H          -0.03427128103100     -1.50567274321479     -2.22201391181469
  H           2.15768763399689     -1.87972976964075      1.91633956163699
  H           3.22222215019010     -0.44403503248604      2.12849925553920
  H           1.45444536017843     -0.29553040121837      2.39415264891339
