21
Coordinates from ORCA-job opt E -788.935862243701
  C      -1.723315      1.475043      0.453699
  C      -2.040517      0.040928      0.059687
  C      -1.430949     -0.370891     -1.283893
  C       0.093820     -0.360929     -1.311582
  O       0.594384     -1.239096     -0.317308
  P       2.175725     -1.163410      0.011923
  C       2.301952      0.163699      1.191605
  O       3.024944     -0.979711     -1.211624
  F       2.449888     -2.565495      0.663858
  H      -0.655933      1.610161      0.650414
  H      -2.022450      2.174376     -0.333336
  H      -2.264270      1.741704      1.367350
  H      -1.705027     -0.637097      0.852753
  H      -3.129579     -0.069502     -0.006796
  H      -1.811933      0.281481     -2.078149
  H      -1.777992     -1.387657     -1.506399
  H       0.482122      0.649640     -1.152329
  H       0.443292     -0.707455     -2.289886
  H       1.641634     -0.017928      2.044015
  H       3.327111      0.242123      1.563505
  H       2.027093      1.120015      0.739059
21
Coordinates from ORCA-job opt E -788.941196795961
  C      -1.732834      1.488032      0.439881
  C      -2.036347      0.038563      0.062020
  C      -1.447099     -0.394679     -1.285006
  C       0.068439     -0.350131     -1.352160
  O       0.599157     -1.203181     -0.333771
  P       2.176768     -1.120708     -0.004173
  C       2.341250      0.140161      1.240250
  O       3.054998     -0.960012     -1.199973
  F       2.391886     -2.525754      0.673451
  H      -0.656745      1.648204      0.610191
  H      -2.060673      2.181264     -0.350985
  H      -2.256822      1.763275      1.367880
  H      -1.671215     -0.631908      0.856922
  H      -3.129304     -0.098602      0.019340
  H      -1.848131      0.242228     -2.089630
  H      -1.775168     -1.426191     -1.496859
  H       0.437609      0.680501     -1.216604
  H       0.413195     -0.705598     -2.335653
  H       1.664687     -0.055682      2.084398
  H       3.374323      0.174713      1.614314
  H       2.092027      1.115506      0.802730
21
Coordinates from ORCA-job opt E -788.943484048966
  C      -1.712145      1.491257      0.424966
  C      -2.028429      0.038815      0.067355
  C      -1.468484     -0.420908     -1.281062
  C       0.039034     -0.347579     -1.395619
  O       0.611031     -1.169723     -0.360402
  P       2.178830     -1.061908     -0.027384
  C       2.351071      0.118567      1.290566
  O       3.083553     -0.904576     -1.189897
  F       2.348066     -2.465983      0.686478
  H      -0.630467      1.654843      0.564727
  H      -2.055141      2.181274     -0.364622
  H      -2.208829      1.783854      1.363317
  H      -1.644565     -0.627610      0.858797
  H      -3.122092     -0.105455      0.051657
  H      -1.887833      0.197695     -2.093847
  H      -1.782647     -1.460148     -1.478630
  H       0.393385      0.692928     -1.284943
  H       0.377690     -0.713840     -2.377814
  H       1.659788     -0.111605      2.113282
  H       3.385173      0.120805      1.663282
  H       2.113011      1.109296      0.876361
21
Coordinates from ORCA-job opt E -788.943678192683
  C      -1.692949      1.499547      0.407146
  C      -2.023511      0.046720      0.073122
  C      -1.479273     -0.434485     -1.273595
  C       0.027228     -0.358022     -1.409010
  O       0.619599     -1.164691     -0.371927
  P       2.182753     -1.034099     -0.038554
  C       2.338453      0.102769      1.320403
  O       3.083224     -0.830606     -1.194676
  F       2.376219     -2.453253      0.650493
  H      -0.609429      1.656905      0.532536
  H      -2.038249      2.182068     -0.387114
  H      -2.176188      1.809103      1.346396
  H      -1.637017     -0.612104      0.869047
  H      -3.117548     -0.090700      0.070019
  H      -1.907549      0.169720     -2.092203
  H      -1.793946     -1.476126     -1.452937
  H       0.381329      0.682918     -1.314509
  H       0.357605     -0.736160     -2.388726
  H       1.653539     -0.171594      2.133380
  H       3.374523      0.109158      1.685257
  H       2.081188      1.102932      0.942019
21
Coordinates from ORCA-job opt E -788.943807737474
  C      -1.654252      1.510596      0.385891
  C      -2.007342      0.058046      0.083156
  C      -1.491049     -0.451154     -1.264184
  C       0.012833     -0.378660     -1.431658
  O       0.628529     -1.162801     -0.391104
  P       2.183368     -0.996550     -0.050265
  C       2.302500      0.084466      1.358971
  O       3.075321     -0.717914     -1.196308
  F       2.425363     -2.436521      0.593109
  H      -0.567542      1.656534      0.489513
  H      -2.004368      2.184378     -0.412891
  H      -2.116233      1.842058      1.327838
  H      -1.616031     -0.591756      0.883624
  H      -3.102263     -0.066618      0.100734
  H      -1.933726      0.135271     -2.087506
  H      -1.811405     -1.494789     -1.416470
  H       0.371231      0.661620     -1.365232
  H       0.325878     -0.780187     -2.407061
  H       1.630485     -0.257268      2.155998
  H       3.340294      0.108459      1.716483
  H       2.008409      1.092791      1.033926
21
Coordinates from ORCA-job opt E -788.943841021189
  C      -1.629461      1.516451      0.377685
  C      -1.992466      0.063292      0.090041
  C      -1.495284     -0.458292     -1.259908
  C       0.006343     -0.392089     -1.447976
  O       0.632633     -1.163394     -0.404448
  P       2.181887     -0.976975     -0.054673
  C       2.274610      0.076761      1.377707
  O       3.070927     -0.657725     -1.193035
  F       2.452272     -2.425605      0.562572
  H      -0.540822      1.658054      0.466256
  H      -1.986862      2.186318     -0.421139
  H      -2.077468      1.856633      1.323318
  H      -1.594583     -0.582186      0.890735
  H      -3.087691     -0.056161      0.122138
  H      -1.948035      0.120719     -2.082943
  H      -1.821091     -1.502349     -1.397539
  H       0.369377      0.647444     -1.401531
  H       0.305326     -0.810106     -2.420826
  H       1.605561     -0.298194      2.162398
  H       3.310926      0.109569      1.739103
  H       1.963900      1.087837      1.078631
21
Coordinates from ORCA-job opt E -788.943863714988
  C      -1.630836      1.530107      0.364884
  C      -1.982204      0.069894      0.096489
  C      -1.495080     -0.462190     -1.253162
  C       0.004847     -0.399126     -1.455748
  O       0.639277     -1.163771     -0.412410
  P       2.185957     -0.967467     -0.058345
  C       2.265567      0.061153      1.393071
  O       3.071075     -0.617191     -1.191690
  F       2.475950     -2.423890      0.531479
  H      -0.542707      1.683673      0.438578
  H      -2.005083      2.187954     -0.436381
  H      -2.070750      1.875378      1.312640
  H      -1.570143     -0.563104      0.900055
  H      -3.076086     -0.058970      0.141406
  H      -1.956772      0.108470     -2.077146
  H      -1.822578     -1.507582     -1.377739
  H       0.370754      0.640074     -1.423634
  H       0.291739     -0.827108     -2.428047
  H       1.593538     -0.332982      2.166213
  H       3.299797      0.089228      1.761532
  H       1.953739      1.077452      1.114521
21
Coordinates from ORCA-job opt E -788.943886528883
  C      -1.618347      1.542622      0.349968
  C      -1.966189      0.077004      0.104809
  C      -1.497271     -0.469455     -1.245238
  C      -0.000350     -0.411264     -1.468437
  O       0.645615     -1.165524     -0.424990
  P       2.187438     -0.948927     -0.063150
  C       2.243776      0.044258      1.413552
  O       3.067506     -0.554401     -1.186664
  F       2.507906     -2.412430      0.490765
  H      -0.529583      1.702854      0.401273
  H      -2.011512      2.188814     -0.451864
  H      -2.042387      1.896367      1.301976
  H      -1.537999     -0.543751      0.909680
  H      -3.058702     -0.056738      0.168305
  H      -1.970636      0.092242     -2.068917
  H      -1.827465     -1.516089     -1.352870
  H       0.368712      0.627343     -1.455006
  H       0.270494     -0.851800     -2.439911
  H       1.566643     -0.375110      2.169131
  H       3.273657      0.068184      1.794915
  H       1.928696      1.065801      1.159237
21
Coordinates from ORCA-job opt E -788.944107288688
  C      -1.537009      1.654315      0.195672
  C      -1.832599      0.153844      0.161990
  C      -1.506771     -0.529159     -1.165441
  C      -0.044175     -0.514091     -1.551336
  O       0.700952     -1.170131     -0.510692
  P       2.185471     -0.769613     -0.084192
  C       2.088703     -0.147031      1.579140
  O       2.954625      0.016168     -1.082941
  F       2.803730     -2.221257      0.132273
  H      -0.461799      1.861579      0.055659
  H      -2.086106      2.187340     -0.598767
  H      -1.830114      2.095198      1.161620
  H      -1.269871     -0.348671      0.967997
  H      -2.900632     -0.014393      0.382577
  H      -2.077104     -0.056213     -1.984612
  H      -1.842425     -1.580011     -1.117405
  H       0.333893      0.511170     -1.700583
  H       0.100125     -1.062391     -2.495989
  H       1.416101     -0.787804      2.167832
  H       3.093606     -0.163061      2.026575
  H       1.711398      0.884212      1.567190
21
Coordinates from ORCA-job opt E -788.944132184147
  C      -1.490416      1.700840      0.114621
  C      -1.773912      0.197445      0.176325
  C      -1.511685     -0.554858     -1.126628
  C      -0.068691     -0.569808     -1.578886
  O       0.721031     -1.163872     -0.535865
  P       2.163733     -0.665140     -0.076462
  C       2.030856     -0.255131      1.648199
  O       2.833060      0.301796     -0.986910
  F       2.939455     -2.053381     -0.027226
  H      -0.426943      1.906226     -0.104001
  H      -2.093504      2.187854     -0.670657
  H      -1.726384      2.189363      1.073682
  H      -1.164242     -0.257135      0.977337
  H      -2.827659      0.034255      0.461877
  H      -2.120965     -0.123473     -1.941204
  H      -1.846953     -1.600416     -1.004167
  H       0.308007      0.440412     -1.812980
  H       0.025093     -1.178373     -2.493047
  H       1.404168     -1.009459      2.147455
  H       3.036142     -0.270165      2.096356
  H       1.589808      0.743020      1.768748
21
Coordinates from ORCA-job opt E -788.944886236876
  C      -1.371984      1.779363     -0.070385
  C      -1.679744      0.297101      0.175335
  C      -1.531845     -0.600315     -1.050106
  C      -0.125963     -0.695835     -1.599575
  O       0.741826     -1.137279     -0.548663
  P       2.054357     -0.417481     -0.009848
  C       1.975816     -0.509452      1.760723
  O       2.402271      0.874984     -0.662913
  F       3.151450     -1.523296     -0.316246
  H      -0.326121      1.929187     -0.401856
  H      -2.033119      2.196938     -0.850081
  H      -1.513372      2.371522      0.848578
  H      -1.019141     -0.086374      0.974978
  H      -2.711592      0.191659      0.555001
  H      -2.195083     -0.244028     -1.859846
  H      -1.869384     -1.619478     -0.785192
  H       0.244620      0.262076     -2.005741
  H      -0.104131     -1.432520     -2.420132
  H       1.568078     -1.494237      2.036649
  H       2.997380     -0.433347      2.165908
  H       1.345682      0.290813      2.169979
21
Coordinates from ORCA-job opt E -788.945623128631
  C      -1.285407      1.742629     -0.037619
  C      -1.707199      0.286018      0.175443
  C      -1.569119     -0.610123     -1.054886
  C      -0.151759     -0.710879     -1.584846
  O       0.719658     -1.147659     -0.538900
  P       2.026680     -0.393941     -0.029321
  C       1.977210     -0.472233      1.740182
  O       2.359882      0.885642     -0.703267
  F       3.117118     -1.508967     -0.319620
  H      -0.209287      1.829910     -0.278662
  H      -1.851171      2.198859     -0.868748
  H      -1.472788      2.339705      0.868327
  H      -1.120957     -0.155461      1.003293
  H      -2.759035      0.246696      0.506739
  H      -2.194396     -0.216369     -1.876526
  H      -1.930157     -1.628243     -0.825349
  H       0.234935      0.254504     -1.958691
  H      -0.093677     -1.434339     -2.413540
  H       1.737696     -1.502705      2.035215
  H       2.966046     -0.214424      2.146347
  H       1.205727      0.211378      2.120994
21
Coordinates from ORCA-job opt E -788.946422203928
  C      -1.267583      1.757151     -0.071978
  C      -1.714850      0.314698      0.167455
  C      -1.573550     -0.611112     -1.041820
  C      -0.156096     -0.737635     -1.571823
  O       0.725961     -1.158098     -0.524621
  P       2.007070     -0.362131     -0.012411
  C       1.993069     -0.527446      1.753947
  O       2.235298      0.972530     -0.623210
  F       3.165699     -1.380459     -0.398051
  H      -0.186228      1.823512     -0.281379
  H      -1.802833      2.199448     -0.928754
  H      -1.472376      2.378593      0.812943
  H      -1.151188     -0.114260      1.014677
  H      -2.771393      0.302546      0.484002
  H      -2.197313     -0.238656     -1.873133
  H      -1.942008     -1.618226     -0.784472
  H       0.228287      0.212219     -1.980584
  H      -0.106550     -1.487645     -2.375413
  H       1.813416     -1.583409      1.999622
  H       2.974303     -0.235205      2.152624
  H       1.198866      0.093585      2.188946
21
Coordinates from ORCA-job opt E -788.946151540951
  C      -1.354595      1.750450     -0.004149
  C      -1.786148      0.298565      0.166078
  C      -1.557658     -0.584633     -1.063534
  C      -0.121206     -0.685114     -1.545443
  O       0.728929     -1.195659     -0.497139
  P       2.091983     -0.491147     -0.057812
  C       2.041790     -0.462134      1.721801
  O       2.417913      0.768119     -0.773827
  F       3.169497     -1.632753     -0.376072
  H      -0.266269      1.843763     -0.115685
  H      -1.824848      2.207555     -0.888423
  H      -1.644085      2.346738      0.873956
  H      -1.269626     -0.142855      1.032591
  H      -2.859119      0.266310      0.416320
  H      -2.153963     -0.210459     -1.911939
  H      -1.928625     -1.598597     -0.848817
  H       0.256275      0.287484     -1.890638
  H      -0.044772     -1.390983     -2.383805
  H       1.769554     -1.463106      2.085534
  H       3.033370     -0.181258      2.099203
  H       1.301602      0.269715      2.068365
21
Coordinates from ORCA-job opt E -788.947087029745
  C      -1.295820      1.778475     -0.101826
  C      -1.751479      0.344170      0.155101
  C      -1.571134     -0.606737     -1.029572
  C      -0.149893     -0.736681     -1.542880
  O       0.724659     -1.179128     -0.486873
  P       2.015163     -0.375726     -0.004187
  C       2.047998     -0.582809      1.761263
  O       2.177639      0.987095     -0.569614
  F       3.199048     -1.339795     -0.480346
  H      -0.206753      1.843378     -0.249408
  H      -1.782519      2.198399     -0.997112
  H      -1.548988      2.426202      0.751348
  H      -1.218755     -0.063895      1.030677
  H      -2.818327      0.343031      0.434027
  H      -2.187023     -0.269043     -1.880681
  H      -1.940910     -1.607604     -0.752501
  H       0.226036      0.214776     -1.948837
  H      -0.091959     -1.490099     -2.341573
  H       1.914186     -1.648123      1.995403
  H       3.018296     -0.237085      2.142689
  H       1.240536      0.001200      2.221467
21
Coordinates from ORCA-job opt E -788.947189866469
  C      -1.306971      1.784336     -0.111319
  C      -1.751763      0.347578      0.152961
  C      -1.571004     -0.606671     -1.028913
  C      -0.149219     -0.732397     -1.540362
  O       0.718115     -1.174940     -0.478448
  P       2.013583     -0.377236      0.001070
  C       2.057851     -0.593886      1.764422
  O       2.184072      0.986289     -0.558504
  F       3.188980     -1.347627     -0.482832
  H      -0.218892      1.854862     -0.267352
  H      -1.802242      2.198577     -1.004885
  H      -1.557618      2.434295      0.740969
  H      -1.208840     -0.054124      1.025920
  H      -2.816947      0.339013      0.437951
  H      -2.188180     -0.273511     -1.881393
  H      -1.937542     -1.608394     -0.749683
  H       0.229128      0.221760     -1.938377
  H      -0.086510     -1.482839     -2.341692
  H       1.929040     -1.659381      1.998518
  H       3.027104     -0.242993      2.143831
  H       1.247855     -0.012711      2.224684
21
Coordinates from ORCA-job opt E -788.947331832149
  C      -1.349035      1.817217     -0.168677
  C      -1.764770      0.380105      0.138188
  C      -1.570825     -0.604207     -1.016816
  C      -0.145619     -0.731723     -1.516636
  O       0.705744     -1.166598     -0.436330
  P       2.005944     -0.369156      0.032344
  C       2.112646     -0.669363      1.780048
  O       2.142128      1.021655     -0.463442
  F       3.181050     -1.294869     -0.538471
  H      -0.262441      1.902054     -0.329398
  H      -1.853638      2.197077     -1.072598
  H      -1.608753      2.488844      0.663989
  H      -1.205244      0.014161      1.017033
  H      -2.827961      0.357774      0.429193
  H      -2.188729     -0.302842     -1.881114
  H      -1.930532     -1.601365     -0.712388
  H       0.238224      0.220914     -1.912546
  H      -0.073161     -1.488888     -2.310714
  H       2.020375     -1.745130      1.978197
  H       3.078137     -0.297903      2.149149
  H       1.296459     -0.127758      2.277552
21
Coordinates from ORCA-job opt E -788.947389170749
  C      -1.398987      1.838068     -0.199275
  C      -1.786004      0.397842      0.127698
  C      -1.569460     -0.597906     -1.013461
  C      -0.137075     -0.718435     -1.494683
  O       0.698593     -1.154251     -0.401291
  P       2.021135     -0.382101      0.046841
  C       2.157622     -0.708650      1.787688
  O       2.168546      1.013892     -0.429776
  F       3.170482     -1.315316     -0.566823
  H      -0.313816      1.940474     -0.357429
  H      -1.908135      2.194878     -1.109909
  H      -1.673709      2.517131      0.622368
  H      -1.218597      0.056451      1.011225
  H      -2.848865      0.357427      0.417422
  H      -2.181812     -0.314623     -1.887645
  H      -1.921950     -1.595192     -0.701162
  H       0.249857      0.236668     -1.880853
  H      -0.050928     -1.473322     -2.289467
  H       2.057058     -1.784469      1.979754
  H       3.131358     -0.347251      2.144585
  H       1.354685     -0.161313      2.300759
21
Coordinates from ORCA-job opt E -788.947433073599
  C      -1.411844      1.848438     -0.226153
  C      -1.798509      0.412742      0.118970
  C      -1.573411     -0.597042     -1.008095
  C      -0.137325     -0.720867     -1.477962
  O       0.693288     -1.145177     -0.376322
  P       2.017638     -0.372046      0.063320
  C       2.186479     -0.741172      1.792770
  O       2.140810      1.037334     -0.380236
  F       3.165612     -1.274331     -0.598621
  H      -0.325943      1.949377     -0.377323
  H      -1.915168      2.190895     -1.145267
  H      -1.693751      2.538191      0.583954
  H      -1.235755      0.084770      1.010210
  H      -2.862797      0.374263      0.403532
  H      -2.180091     -0.325081     -1.889417
  H      -1.924975     -1.591293     -0.685839
  H       0.250571      0.230918     -1.871097
  H      -0.044668     -1.483196     -2.264785
  H       2.100129     -1.822450      1.959584
  H       3.162478     -0.378874      2.142223
  H       1.387232     -0.215400      2.333119
21
Coordinates from ORCA-job opt E -788.947177712806
  C      -1.477192      1.905210     -0.389372
  C      -1.854019      0.499480      0.069559
  C      -1.588888     -0.594189     -0.967549
  C      -0.137218     -0.740809     -1.382002
  O       0.665533     -1.098382     -0.237875
  P       1.983795     -0.305852      0.176937
  C       2.338868     -0.931407      1.800800
  O       1.967067      1.162070     -0.039427
  F       3.115770     -0.977423     -0.741518
  H      -0.389305      2.003840     -0.516360
  H      -1.960346      2.158078     -1.346955
  H      -1.790343      2.656254      0.351607
  H      -1.308224      0.257101      0.997119
  H      -2.923467      0.468951      0.335171
  H      -2.169107     -0.392955     -1.883758
  H      -1.938329     -1.565251     -0.580170
  H       0.256570      0.188741     -1.820058
  H      -0.017830     -1.546115     -2.120943
  H       2.317280     -2.028938      1.798148
  H       3.330034     -0.574458      2.110307
  H       1.579351     -0.543946      2.492905
21
Coordinates from ORCA-job opt E -788.947477259961
  C      -1.430051      1.868161     -0.283064
  C      -1.823968      0.443695      0.098804
  C      -1.582967     -0.597197     -0.996560
  C      -0.139845     -0.731273     -1.441630
  O       0.678153     -1.124874     -0.320355
  P       2.001228     -0.343216      0.103930
  C       2.248468     -0.808940      1.800155
  O       2.066000      1.092601     -0.261131
  F       3.145159     -1.164871     -0.662255
  H      -0.341464      1.962947     -0.415537
  H      -1.916397      2.181372     -1.221387
  H      -1.727295      2.581319      0.500754
  H      -1.276085      0.141426      1.007971
  H      -2.892225      0.414201      0.369425
  H      -2.174967     -0.346811     -1.893709
  H      -1.936776     -1.583578     -0.653808
  H       0.249282      0.211802     -1.854728
  H      -0.033918     -1.511912     -2.208665
  H       2.190166     -1.900135      1.902868
  H       3.232773     -0.450245      2.129387
  H       1.464726     -0.334473      2.406101
21
Coordinates from ORCA-job opt E -788.947472820913
  C      -1.408160      1.849314     -0.235636
  C      -1.804697      0.416946      0.113785
  C      -1.577790     -0.598399     -1.008208
  C      -0.139313     -0.727365     -1.469917
  O       0.686902     -1.138486     -0.361409
  P       2.009583     -0.360635      0.072724
  C       2.199259     -0.751229      1.795111
  O       2.111625      1.055782     -0.354599
  F       3.161107     -1.238033     -0.614139
  H      -0.321042      1.943682     -0.381932
  H      -1.905787      2.189719     -1.158567
  H      -1.690782      2.543310      0.570630
  H      -1.250578      0.089667      1.010584
  H      -2.870915      0.385707      0.392402
  H      -2.177563     -0.325063     -1.893672
  H      -1.933839     -1.590582     -0.684680
  H       0.247003      0.221339     -1.872601
  H      -0.042621     -1.496142     -2.250205
  H       2.110059     -1.835206      1.944114
  H       3.184301     -0.403556      2.134031
  H       1.413247     -0.230768      2.358749
21
Coordinates from ORCA-job opt E -788.947493249937
  C      -1.422435      1.860162     -0.262202
  C      -1.815974      0.431631      0.105300
  C      -1.580457     -0.597741     -1.002068
  C      -0.139023     -0.728732     -1.453881
  O       0.681651     -1.130008     -0.337488
  P       2.005999     -0.351713      0.089869
  C       2.227384     -0.783395      1.798548
  O       2.089161      1.075402     -0.304489
  F       3.152885     -1.200605     -0.640372
  H      -0.334674      1.955698     -0.401900
  H      -1.915005      2.185276     -1.193286
  H      -1.713052      2.564570      0.532042
  H      -1.264751      0.118638      1.008900
  H      -2.883268      0.400404      0.379688
  H      -2.175616     -0.336957     -1.894314
  H      -1.935270     -1.586918     -0.668316
  H       0.248253      0.217417     -1.861630
  H      -0.036194     -1.503483     -2.227390
  H       2.151457     -1.871429      1.922567
  H       3.213960     -0.433460      2.130519
  H       1.444970     -0.284758      2.386469
21
Coordinates from ORCA-job opt E -788.947491367479
  C      -1.426042      1.863341     -0.270556
  C      -1.818816      0.436076      0.102703
  C      -1.581141     -0.597825     -1.000028
  C      -0.138886     -0.729983     -1.448976
  O       0.680135     -1.127993     -0.330231
  P       2.004130     -0.348271      0.095528
  C       2.235392     -0.793223      1.799443
  O       2.079579      1.082259     -0.287965
  F       3.151122     -1.185530     -0.647872
  H      -0.338175      1.959213     -0.408924
  H      -1.917597      2.183791     -1.203788
  H      -1.718582      2.570962      0.520114
  H      -1.268534      0.127460      1.008368
  H      -2.886416      0.405200      0.375948
  H      -2.174830     -0.340563     -1.894261
  H      -1.936193     -1.585794     -0.663012
  H       0.248441      0.215316     -1.858715
  H      -0.034448     -1.506633     -2.220366
  H       2.161812     -1.882398      1.914653
  H       3.223422     -0.444811      2.128670
  H       1.455627     -0.300594      2.395834
21
Coordinates from ORCA-job opt E -788.947495661680
  C      -1.425619      1.862638     -0.268688
  C      -1.818141      0.434955      0.103226
  C      -1.580888     -0.597899     -1.000579
  C      -0.138729     -0.729677     -1.449967
  O       0.680294     -1.128365     -0.331446
  P       2.004600     -0.349046      0.094290
  C       2.233641     -0.790907      1.799295
  O       2.081981      1.080547     -0.292215
  F       3.151785     -1.189095     -0.645564
  H      -0.337854      1.958806     -0.407791
  H      -1.917845      2.184136     -1.201222
  H      -1.717639      2.569419      0.522933
  H      -1.267501      0.125393      1.008373
  H      -2.885650      0.403797      0.376812
  H      -2.174746     -0.339662     -1.894446
  H      -1.936158     -1.586104     -0.664478
  H       0.248386      0.216030     -1.858947
  H      -0.034271     -1.505673     -2.222014
  H       2.157688     -1.879730      1.916340
  H       3.222222     -0.444035      2.128499
  H       1.454445     -0.295530      2.394153
