22
covalent5 cluster: triad+VX (heavy+capH, no substrate H yet)
C    -51.847000    34.192000   -31.938000
O    -50.483000    33.859000   -32.200000
H    -52.517629    33.347320   -32.095711
C    -50.372000    38.802000   -36.691000
C    -50.711000    37.733000   -35.708000
N    -51.301000    36.544000   -36.080000
C    -50.518000    37.659000   -34.369000
C    -51.461000    35.784000   -35.012000
N    -50.997000    36.439000   -33.961000
H    -51.180582    39.507100   -36.883689
C    -50.931000    36.018000   -41.261000
C    -52.424000    35.827000   -41.040000
C    -52.838000    36.006000   -39.580000
O    -51.954000    36.177000   -38.710000
O    -54.057000    35.970000   -39.301000
H    -50.600277    37.054359   -41.192575
P    -49.392000    34.303000   -31.598000
O    -49.556000    33.624000   -30.381000
O    -48.337000    33.404000   -32.235000
C    -48.594000    35.914000   -31.348000
C    -48.586000    32.801000   -33.424000
C    -47.260000    32.270000   -33.881000
