70
Ser-alkoxide: Ser-O- + His(HIP) + Glu- + VX. net charge -1
C     -4.691000   -42.256000    28.395000
O     -5.224841   -41.887140    29.649277
H     -5.359209   -41.859566    27.618791
H     -4.650347   -43.349931    28.254994
H     -3.691771   -41.844970    28.251139
C     -6.711000   -48.524000    27.046000
C     -6.020724   -47.236817    26.743240
N     -4.744149   -47.171075    26.250957
C     -6.450204   -45.928530    26.805887
C     -4.460869   -45.867290    26.032468
N     -5.468647   -45.079762    26.354669
H     -6.995197   -49.049488    26.119602
H     -7.630745   -48.335159    27.616497
H     -7.425694   -45.574610    27.139094
H     -3.497670   -45.555007    25.628765
H     -6.085164   -49.207055    27.620339
C     -3.815000   -49.398000    22.387000
C     -2.457629   -49.274957    23.076303
C     -2.597290   -48.630584    24.458715
O     -3.353619   -49.237492    25.276013
O     -2.021326   -47.548478    24.677431
H     -3.704134   -49.742876    21.346768
H     -4.329467   -48.423786    22.356297
H     -2.002424   -50.273596    23.190563
H     -1.770656   -48.664794    22.470561
H     -4.470300   -50.104960    22.895813
H     -4.132768   -47.994960    25.999952
C    -10.835235   -43.680092    28.097651
S    -10.182530   -44.075503    29.753944
P     -8.255562   -43.192623    29.628195
C     -7.144401   -44.443462    30.264970
O     -7.991883   -42.651281    28.257010
O     -8.216173   -42.091756    30.808553
C     -9.762690   -40.296213    30.165939
C     -8.348176   -40.689099    30.540552
C    -10.273246   -44.583724    27.000288
N    -10.636852   -44.098709    25.683882
C     -9.809646   -42.955286    25.265126
C    -10.632699   -41.800863    24.685429
C     -8.595591   -43.284609    24.387358
C    -11.053186   -45.154983    24.758826
C     -9.970113   -46.189195    24.399086
C    -11.740192   -44.621120    23.504636
H    -11.926187   -43.792064    28.183004
H    -10.625460   -42.623076    27.884677
H     -6.147434   -43.985520    30.306142
H     -7.146252   -45.307509    29.587811
H     -7.466065   -44.749822    31.269968
H     -9.836644   -39.201721    30.079250
H    -10.479437   -40.633613    30.929249
H    -10.052158   -40.730206    29.196724
H     -8.036649   -40.195188    31.471526
H     -7.628735   -40.410551    29.756031
H    -10.663583   -45.602942    27.149944
H     -9.178025   -44.650692    27.135810
H     -9.382651   -42.573095    26.205469
H    -11.025993   -42.019173    23.681866
H    -10.013080   -40.893194    24.609642
H    -11.482622   -41.576985    25.347861
H     -8.879969   -43.641933    23.386366
H     -7.953510   -44.045141    24.857542
H     -7.984299   -42.378297    24.252186
H    -11.828608   -45.713108    25.314700
H     -9.217731   -45.786033    23.707185
H    -10.434929   -47.063502    23.916153
H     -9.444113   -46.548842    25.297322
H    -11.041795   -44.094921    22.836459
H    -12.554186   -43.928866    23.765687
H    -12.172632   -45.459070    22.937233
H     -5.484620   -44.082983    26.276075
