88
His447 full-QM RC: triad(HID,Glu-,Ser-OH) + oxyanion(Gly121/122,Ala204 formamide) + VX. net -1
C     -4.691000   -42.256000    28.395000
O     -5.337000   -41.735000    29.543000
H     -5.230000   -42.067000    27.611000
H     -4.632000   -43.221000    28.472000
H     -5.012000   -42.088000    30.232000
H     -3.691771   -41.844970    28.251139
C     -6.711000   -48.524000    27.046000
C     -6.275000   -47.093000    27.072000
N     -5.134000   -46.649000    26.439000
C     -6.871000   -45.992000    27.590000
C     -5.034000   -45.339000    26.585000
N     -6.075000   -44.917000    27.280000
H     -6.733000   -48.825000    26.124000
H     -7.619000   -48.578000    27.383000
H     -7.669000   -45.969000    28.066000
H     -4.348000   -44.805000    26.255000
H     -6.085164   -49.207055    27.620339
C     -3.815000   -49.398000    22.387000
C     -2.406000   -49.284000    22.993000
C     -2.412000   -48.616000    24.371000
O     -3.469000   -48.069000    24.763000
O     -1.366000   -48.632000    25.063000
H     -3.734000   -49.661000    21.457000
H     -4.232000   -48.522000    22.399000
H     -2.017000   -50.169000    23.068000
H     -1.839000   -48.775000    22.393000
H     -4.470300   -50.104960    22.895813
H     -4.467633   -47.203345    25.940345
N     -7.696000   -39.975000    31.317000
H     -7.240396   -40.297885    30.475412
H     -8.703719   -39.910233    31.337196
C     -6.956000   -39.647000    32.367000
O     -7.442000   -39.397000    33.474000
H     -5.878385   -39.618321    32.205680
N     -8.926000   -39.020000    29.092000
H     -8.091960   -39.589039    29.066098
H     -9.186990   -38.513942    28.257800
C     -9.629000   -38.975000    30.230000
O    -10.609000   -38.242000    30.404000
H     -9.280026   -39.626275    31.031348
N     -4.380000   -39.482000    28.438000
H     -5.218836   -39.989716    28.680236
H     -4.384812   -38.472146    28.421501
C     -3.263000   -40.140000    28.139000
O     -2.223000   -39.555000    27.830000
H     -3.275765   -41.229277    28.176586
C     -9.612800   -46.255300    31.204700
S     -7.857400   -45.865700    31.484200
P     -7.862300   -43.827500    31.927500
C     -6.541300   -43.491600    33.092000
O     -7.680200   -43.020400    30.671300
O     -9.194500   -43.382200    32.729200
C    -10.480800   -42.099400    34.267000
C     -9.089400   -42.548200    33.869400
C    -10.101500   -46.039100    29.757300
N    -11.302800   -45.189000    29.580200
C    -10.937600   -43.837400    29.095200
C    -11.103200   -42.714000    30.122900
C    -11.544100   -43.402300    27.751300
C    -12.440700   -45.917600    28.985600
C    -12.273000   -46.411100    27.548400
C    -13.757700   -45.146500    29.145600
H     -9.770300   -47.282600    31.459200
H    -10.172400   -45.578200    31.815700
H     -6.531500   -42.448200    33.329100
H     -5.603500   -43.767300    32.656800
H     -6.700400   -44.058800    33.985200
H    -10.419200   -41.467500    35.128300
H    -11.080200   -42.955900    34.495200
H    -10.925600   -41.557900    33.458400
H     -8.641900   -43.092500    34.674600
H     -8.479700   -41.697700    33.646400
H    -10.320600   -47.000600    29.342100
H     -9.309100   -45.511400    29.268900
H     -9.891800   -43.983100    28.921900
H    -12.144200   -42.552600    30.310300
H    -10.665800   -41.814800    29.742000
H    -10.615300   -42.989700    31.034400
H    -12.595400   -43.242300    27.869600
H    -11.379600   -44.167300    27.021400
H    -11.079400   -42.494500    27.427500
H    -12.470400   -46.817200    29.564200
H    -12.232400   -45.572100    26.885600
H    -13.103000   -47.033200    27.285800
H    -11.366300   -46.973500    27.467900
H    -13.718600   -44.249300    28.563900
H    -13.902300   -44.897400    30.176100
H    -14.570600   -45.755100    28.808300
