70
Coordinates from ORCA-job rc_alkoxide E -2027.322049697832
  C          -4.69100011582484    -42.25599993317156     28.39500007475331
  O          -5.21094097472410    -41.99305864580813     29.61174193991937
  H          -5.28919158813889    -41.88416142840840     27.50494099679786
  H          -4.56429986885553    -43.36188984358560     28.17102645415017
  H          -3.69177091107005    -41.84497005660680     28.25113893624615
  C          -6.71099999092291    -48.52399999834152     27.04599997926633
  C          -6.01921837279832    -47.24006032089788     26.73720438181411
  N          -4.73604822623038    -47.19008840243859     26.24085841148442
  C          -6.46983909258548    -45.94787563612077     26.80019846484915
  C          -4.41482006218713    -45.92867588844958     25.99998334913603
  N          -5.44907741144537    -45.15400726107293     26.32929730723393
  H          -6.98807794083817    -49.04008173255666     26.11348038441914
  H          -7.63147197031449    -48.32954369608633     27.61146381580736
  H          -7.42971657006042    -45.54427069486437     27.10833382555803
  H          -3.46281224397850    -45.59832593332995     25.59147509639917
  H          -6.08516400376483    -49.20705500285395     27.62033901376029
  C          -3.81500000587764    -49.39800000825313     22.38700000609099
  C          -2.47346964972668    -49.24503468060430     23.10433842188225
  C          -2.66563530564120    -48.51362112543481     24.42528731334920
  O          -3.42871197755448    -49.09590238703655     25.27229896820967
  O          -2.15953288513872    -47.39480533740628     24.59058294563994
  H          -3.67178978771198    -49.76565433661501     21.35904910756644
  H          -4.33893071683829    -48.43113459521420     22.32074435668765
  H          -2.03063924793819    -50.23650937246278     23.29531581874951
  H          -1.76539939386990    -48.67133074977172     22.48886729029937
  H          -4.47029999493220    -50.10495999348738     22.89581299297928
  H          -4.08737036458577    -48.07292261821982     25.92191879289630
  C         -10.85965095933468    -43.72189302271689     28.12411336618683
  S         -10.16271882518324    -44.18027380652841     29.74989264193771
  P          -8.29196633490269    -43.17509679703545     29.60346156928187
  C          -6.99042550405527    -44.27291671183909     30.11925340557969
  O          -8.17138438594642    -42.55354564232113     28.24503424806926
  O          -8.32675328621549    -42.12839607379509     30.83899824621901
  C          -9.77398191217690    -40.29587643453105     30.12976696116920
  C          -8.40308487455013    -40.71761690012372     30.61452108252989
  C         -10.28205285969677    -44.58333676091590     27.00151968301007
  N         -10.63685191175322    -44.09870895679015     25.68388190401395
  C          -9.80964593737586    -42.95528606125580     25.26512604726764
  C         -10.63269905823367    -41.80086298142155     24.68542894230028
  C          -8.59559105050044    -43.28460893661550     24.38735799983287
  C         -11.05318624865406    -45.15498301223343     24.75882616731374
  C          -9.97011292360394    -46.18919499034561     24.39908593442545
  C         -11.74019192586893    -44.62111999015296     23.50463598214095
  H         -11.94663788013074    -43.86549547389012     28.21465828975168
  H         -10.67309459176703    -42.65407357008719     27.95102854457654
  H          -6.11257326924894    -43.56901070312455     30.03170459173850
  H          -6.92237057553505    -45.13796717916193     29.44740210951848
  H          -7.15444665280255    -44.60050956319309     31.15524099078614
  H          -9.83664399807686    -39.20172100309704     30.07925000001655
  H         -10.55476253882993    -40.65620875490629     30.81608161182043
  H          -9.97407658788276    -40.69737448987041     29.12551171482006
  H          -8.17501841596254    -40.26069250035573     31.58832365659635
  H          -7.59983043006610    -40.43379534722436     29.91664615406296
  H         -10.66358299058036    -45.60294201112617     27.14994400488418
  H          -9.18724842914809    -44.63767030920619     27.14541738798144
  H          -9.38678932918372    -42.57472907157794     26.20767502756905
  H         -11.02599298171243    -42.01917299947280     23.68186601562013
  H         -10.01307999359108    -40.89319399845243     24.60964201175083
  H         -11.48262199288187    -41.57698500050811     25.34786100719394
  H          -8.87996899391893    -43.64193302569969     23.38636600117316
  H          -7.95350999240361    -44.04514101154700     24.85754200168288
  H          -7.98429899463754    -42.37829700705369     24.25218599781990
  H         -11.82860795012310    -45.71310801434925     25.31469996246367
  H          -9.21773100548504    -45.78603300507014     23.70718500993376
  H         -10.43492900897096    -47.06350200289509     23.91615300824013
  H          -9.44411300591715    -46.54884199811436     25.29732200430935
  H         -11.04179500718264    -44.09492099587676     22.83645899283692
  H         -12.55418600355255    -43.92886600379068     23.76568700555923
  H         -12.17263200258326    -45.45907000141736     22.93723299612407
  H          -5.45533594583276    -44.13954290561571     26.26271634941081
