88
Ser HG reoriented toward His Ne2 (reactive Michaelis). net -1
C     -3.992956   -42.883858    28.797691
O     -5.310872   -43.008284    29.327067
H     -3.861054   -43.706290    28.085359
H     -3.225652   -42.983545    29.593036
H     -5.466351   -43.623681    28.606850
H     -3.691774   -41.844967    28.251142
C     -6.840988   -48.408515    27.729284
C     -6.260601   -47.066922    27.397796
N     -5.222821   -46.919594    26.514334
C     -6.587817   -45.780693    27.783148
C     -4.978329   -45.593946    26.397596
N     -5.780549   -44.867295    27.151411
H     -7.678152   -48.656983    27.054732
H     -7.236681   -48.418088    28.755667
H     -7.357592   -45.468750    28.487662
H     -4.190484   -45.203626    25.752638
H     -6.085164   -49.207055    27.620339
C     -3.593212   -50.709219    23.175062
C     -3.737724   -51.199313    24.604693
C     -4.023420   -50.089556    25.628771
O     -4.028848   -48.905225    25.188799
O     -4.239500   -50.438998    26.805443
H     -3.497563   -51.543728    22.463161
H     -2.709134   -50.060189    23.065788
H     -4.559560   -51.931436    24.691523
H     -2.835443   -51.736632    24.941729
H     -4.470300   -50.104960    22.895813
H     -4.714033   -47.709628    26.026019
N     -7.653367   -40.252512    31.416101
H     -7.191314   -40.527753    30.556626
H     -8.703723   -39.910258    31.337179
C     -6.956000   -39.646996    32.367001
O     -7.441999   -39.397001    33.474001
H     -5.878385   -39.618321    32.205680
N     -8.932094   -39.070422    29.085218
H     -8.178749   -39.734153    28.957240
H     -9.186989   -38.513941    28.257800
C     -9.629000   -38.975006    30.229996
O    -10.609001   -38.242001    30.404000
H     -9.280022   -39.626248    31.031367
N     -4.398261   -39.495194    28.454631
H     -5.269226   -39.968071    28.663542
H     -4.384812   -38.472146    28.421501
C     -3.263001   -40.140000    28.139001
O     -2.223000   -39.555000    27.830000
H     -3.275762   -41.229279    28.176583
C     -9.608695   -46.026940    31.207782
S     -7.831839   -45.654049    31.476204
P     -7.732871   -43.531877    31.506464
C     -6.179388   -43.263619    32.366199
O     -7.921642   -42.890071    30.172140
O     -8.959437   -43.138392    32.520047
C    -10.410312   -42.123837    34.237695
C     -8.984232   -42.510786    33.822701
C    -10.111399   -46.001223    29.746248
N    -11.302800   -45.189000    29.580200
C    -10.937600   -43.837400    29.095200
C    -11.097827   -42.744674    30.129508
C    -11.544100   -43.402300    27.751300
C    -12.440700   -45.917600    28.985600
C    -12.273000   -46.411100    27.548400
C    -13.757700   -45.146500    29.145600
H     -9.730765   -47.016811    31.671171
H    -10.191972   -45.315351    31.807592
H     -6.033842   -42.187325    32.522258
H     -5.375237   -43.645829    31.722678
H     -6.187016   -43.786261    33.331632
H    -10.419200   -41.467500    35.128300
H    -11.080200   -42.955900    34.495200
H    -10.925600   -41.557900    33.458400
H     -8.544738   -43.205406    34.556837
H     -8.364853   -41.601235    33.788588
H    -10.320600   -47.000600    29.342100
H     -9.290565   -45.628846    29.111666
H     -9.852556   -43.875016    28.910824
H    -12.144200   -42.552600    30.310300
H    -10.665800   -41.814800    29.742000
H    -10.605603   -42.986593    31.075782
H    -12.595400   -43.242300    27.869600
H    -11.379600   -44.167300    27.021400
H    -11.079400   -42.494500    27.427500
H    -12.470400   -46.817200    29.564200
H    -12.232400   -45.572100    26.885600
H    -13.103000   -47.033200    27.285800
H    -11.366300   -46.973500    27.467900
H    -13.718600   -44.249300    28.563900
H    -13.902300   -44.897400    30.176100
H    -14.570600   -45.755100    28.808300
