88
Coordinates from ORCA-job rc_oxh2 E -2536.307923116939
  C          -4.02278097270628    -42.83022652974199     28.85866854749256
  O          -5.34714546394163    -42.82992223878228     29.38138641989464
  H          -3.83603816255524    -43.71657345289777     28.22740451488120
  H          -3.29446134164806    -42.85925056643967     29.69267539169405
  H          -5.82324742627144    -43.48376617240932     28.75579123552374
  H          -3.69177379684570    -41.84496714400476     28.25114177434855
  C          -6.96417577516112    -48.54379048759399     27.62753672576137
  C          -6.56497023696042    -47.11856827959770     27.42271714557216
  N          -5.82870246553048    -46.69371128677223     26.34592245071260
  C          -6.81389254407865    -45.98455710128356     28.16081365648177
  C          -5.66152045144513    -45.36061095718818     26.46819174599816
  N          -6.25432478950700    -44.88901752397382     27.55186394586428
  H          -7.64483693890402    -48.88550150551023     26.83158873599956
  H          -7.48570117029753    -48.65252165797457     28.58848538718629
  H          -7.32651047147764    -45.90315098742126     29.11490555108597
  H          -5.09504048052503    -44.76873164940783     25.74821550426632
  H          -6.08516400197644    -49.20705498722413     27.62033900093356
  C          -3.51512190864023    -50.50526702141613     23.26237762884051
  C          -3.57094488070725    -50.61731340862837     24.77660366309477
  C          -4.03261678488773    -49.34011754246646     25.49450488142880
  O          -4.68717330818398    -48.50788266553143     24.79716960782874
  O          -3.77040463163724    -49.23066393406073     26.70575313182193
  H          -3.32703869520668    -51.47784230051940     22.78224555414871
  H          -2.72498985716671    -49.80878601933750     22.93975778227389
  H          -4.28636155470597    -51.40567922139729     25.07297870174783
  H          -2.60295345783547    -50.91949528116813     25.20719015949451
  H          -4.47030000048406    -50.10495999771784     22.89581300165027
  H          -5.35931845911346    -47.35873642581537     25.65531179473216
  N          -7.65151083235484    -40.25181866624923     31.41279360631155
  H          -7.18255596648133    -40.55144252549982     30.56387336825123
  H          -8.70372300668179    -39.91025797374174     31.33717904190057
  C          -6.95600000630762    -39.64699598518394     32.36700098879493
  O          -7.44199900174265    -39.39700099244629     33.47400099810388
  H          -5.87838499900108    -39.61832102302007     32.20568000723887
  N          -8.93123090128979    -39.06938320841059     29.08596432244237
  H          -8.16354150222205    -39.71759438298037     28.96560493529529
  H          -9.18698900218810    -38.51394100115392     28.25779999829460
  C          -9.62900000758084    -38.97500599289233     30.22999600853660
  O         -10.60900099532728    -38.24200099574384     30.40400000129907
  H          -9.28002199743516    -39.62624803642792     31.03136696452496
  N          -4.39945616527019    -39.49680000768893     28.45278543028041
  H          -5.25090129778644    -39.98460201094096     28.70717079112327
  H          -4.38481200209151    -38.47214600039840     28.42150101015004
  C          -3.26300092352120    -40.14000003467508     28.13900094503521
  O          -2.22300002160495    -39.55499999224267     27.82999997649809
  H          -3.27576221357557    -41.22927884605821     28.17658326440794
  C          -9.67930652227286    -46.05073985446066     31.25926042687663
  S          -7.92557797764337    -45.66176817774614     31.65102096091411
  P          -7.77581286552193    -43.54045587787108     31.49957345891742
  C          -6.20299848943593    -43.24597838114687     32.30666977736828
  O          -7.99010799402614    -43.01471702234026     30.12118305453210
  O          -8.97907441537209    -43.02914851009960     32.48019390843818
  C         -10.41304473998482    -42.12228816384039     34.24093978841528
  C          -8.99150040499839    -42.51535324892632     33.82481629002073
  C         -10.12224967274106    -46.00596732813502     29.77543578432757
  N         -11.30280006267705    -45.18899999175155     29.58020005441870
  C         -10.93759995423868    -43.83740001394682     29.09519997313755
  C         -11.09863686040330    -42.74501317193977     30.12858516596030
  C         -11.54410002961350    -43.40229999311617     27.75130001526034
  C         -12.44069995625896    -45.91759999672197     28.98559994409836
  C         -12.27300001182067    -46.41109999959277     27.54840000758612
  C         -13.75770001091142    -45.14650000954080     29.14560001942965
  H          -9.80439236425328    -47.05170900696934     31.69825213356662
  H         -10.30890562362150    -45.36314834108043     31.84033378524482
  H          -6.08311366187317    -42.16874634577102     32.47075038025670
  H          -5.42085782153587    -43.58235497095362     31.61403105302908
  H          -6.16174398304032    -43.78075826508184     33.26474400170246
  H         -10.41920000422982    -41.46749999522135     35.12830000293601
  H         -11.08020000372243    -42.95589999973696     34.49520000544792
  H         -10.92560000065676    -41.55790000140848     33.45840000042665
  H          -8.58211841933683    -43.27602474710142     34.51012518947772
  H          -8.34422776424642    -41.62521848948255     33.86347065447907
  H         -10.32060000125990    -47.00060000122836     29.34210000031979
  H          -9.28708645456421    -45.62087998915384     29.17348145964943
  H          -9.85297267992171    -43.87574967905753     28.91245624626531
  H         -12.14420000227679    -42.55259999898116     30.31030000134758
  H         -10.66580000073719    -41.81479999896500     29.74200000093382
  H         -10.60723254594424    -42.98642091060791     31.07433359420985
  H         -12.59539999691503    -43.24230000466299     27.86959999729768
  H         -11.37959999081159    -44.16729999812399     27.02139999647941
  H         -11.07939999764647    -42.49449999987537     27.42749999894500
  H         -12.47040000841123    -46.81719999934778     29.56420000875034
  H         -12.23239999726512    -45.57209999931435     26.88559999988145
  H         -13.10299999861826    -47.03320000001539     27.28579999907969
  H         -11.36629999884396    -46.97350000017629     27.46789999987310
  H         -13.71859999946819    -44.24929999979785     28.56389999640407
  H         -13.90229999815956    -44.89739999636007     30.17609999720817
  H         -14.57059999909343    -45.75509999918317     28.80829999902139
