88
Coordinates from ORCA-job rc_oxh E -2536.294275359592
  C          -3.99295554134835    -42.88385795758755     28.79769119824467
  O          -5.31087186353830    -43.00828384778816     29.32706718661883
  H          -3.86105408633044    -43.70629034701449     28.08535902851035
  H          -3.22565151703656    -42.98354545353485     29.59303590904670
  H          -5.51154362478547    -42.23188752917500     29.85875953848533
  H          -3.69177364753418    -41.84496746211155     28.25114189536715
  C          -6.84098810362037    -48.40851508297817     27.72928422465450
  C          -6.26060095348944    -47.06692171175705     27.39779550211987
  N          -5.22282075060378    -46.91959439204090     26.51433423972516
  C          -6.58781666825277    -45.78069253582514     27.78314843645471
  C          -4.97832893549426    -45.59394611088132     26.39759584413304
  N          -5.78054916343946    -44.86729501145552     27.15141078829814
  H          -7.67815227250097    -48.65698330455088     27.05473221724567
  H          -7.23668146785779    -48.41808832652877     28.75566685984955
  H          -7.35759220354980    -45.46874952175852     28.48766249126599
  H          -4.19048404489687    -45.20362641881145     25.75263844091805
  H          -6.08516392628723    -49.20705490968674     27.62033900767980
  C          -3.59321202185798    -50.70921900032980     23.17506158040971
  C          -3.73772356484729    -51.19931319202352     24.60469334652903
  C          -4.02341971845228    -50.08955575012065     25.62877079067702
  O          -4.02884809350878    -48.90522508481223     25.18879930555505
  O          -4.23950034349347    -50.43899843209055     26.80544323205787
  H          -3.49756257218558    -51.54372841618196     22.46316127994067
  H          -2.70913440472818    -50.06018934417497     23.06578827990679
  H          -4.55955995338976    -51.93143555669185     24.69152343113966
  H          -2.83544337557398    -51.73663236376743     24.94172899712193
  H          -4.47030013010790    -50.10495975101404     22.89581318731945
  H          -4.71403266403344    -47.70962759124211     26.02601894514957
  N          -7.65336731359608    -40.25251232213037     31.41610124846692
  H          -7.19131447112934    -40.52775274225812     30.55662637733927
  H          -8.70372259679944    -39.91025790565898     31.33717903356017
  C          -6.95600012159189    -39.64699601540348     32.36700113058168
  O          -7.44199927315339    -39.39700094276294     33.47400091379848
  H          -5.87838502602302    -39.61832065262188     32.20567953519858
  N          -8.93209418061502    -39.07042236731210     29.08521781625403
  H          -8.17874857804289    -39.73415303746440     28.95724008741465
  H          -9.18698932661377    -38.51394130697323     28.25780044266759
  C          -9.62900042413214    -38.97500564717534     30.22999570531838
  O         -10.60900106934251    -38.24200118709009     30.40399959279155
  H          -9.28002207164703    -39.62624797291677     31.03136657047233
  N          -4.39826092623171    -39.49519449176817     28.45463057301414
  H          -5.26922603319801    -39.96807086880998     28.66354159783921
  H          -4.38481211477269    -38.47214606168633     28.42150071010620
  C          -3.26300077526942    -40.13999990004470     28.13900096374660
  O          -2.22299988005183    -39.55500001154594     27.83000018249095
  H          -3.27576157316896    -41.22927909393329     28.17658293166296
  C          -9.60869485795197    -46.02693994578143     31.20778151703363
  S          -7.83183866355043    -45.65404856929898     31.47620433403784
  P          -7.73287137983043    -43.53187654261951     31.50646366991348
  C          -6.17938784885495    -43.26361883863676     32.36619865031693
  O          -7.92164165055831    -42.89007123463160     30.17214048056168
  O          -8.95943714113285    -43.13839163798561     32.52004722992487
  C         -10.41031218504645    -42.12383667309523     34.23769467727382
  C          -8.98423235709396    -42.51078646583613     33.82270096802488
  C         -10.11139897366147    -46.00122329782430     29.74624754020865
  N         -11.30279997385172    -45.18900017540447     29.58020010224705
  C         -10.93760014792684    -43.83739990606094     29.09520015599273
  C         -11.09782677638129    -42.74467393312936     30.12950758032302
  C         -11.54409987961891    -43.40230003219973     27.75129993189618
  C         -12.44070003336095    -45.91759989164162     28.98559989116579
  C         -12.27299993889125    -46.41110007613184     27.54840002702114
  C         -13.75769998117462    -45.14649999591741     29.14559995554893
  H          -9.73076536495649    -47.01681100324252     31.67117068088221
  H         -10.19197150592605    -45.31535070419704     31.80759228331903
  H          -6.03384198387654    -42.18732450091839     32.52225764940670
  H          -5.37523728746045    -43.64582874459676     31.72267765657690
  H          -6.18701564714969    -43.78626146119798     33.33163153086868
  H         -10.41920008377154    -41.46749996683175     35.12830006508971
  H         -11.08020006891082    -42.95589999210194     34.49519997966821
  H         -10.92560001799859    -41.55789994323987     33.45840001163550
  H          -8.54473840842395    -43.20540568548581     34.55683729479503
  H          -8.36485256231584    -41.60123502168619     33.78858829319355
  H         -10.32059994730096    -47.00060003868587     29.34210016328393
  H          -9.29056466020471    -45.62884577655446     29.11166645803019
  H          -9.85255568953766    -43.87501648360164     28.91082442705671
  H         -12.14420001547320    -42.55259998714694     30.31029999254003
  H         -10.66579987078055    -41.81480020949457     29.74199987042551
  H         -10.60560257446023    -42.98659292628391     31.07578192165873
  H         -12.59540001411968    -43.24229999246686     27.86960000781366
  H         -11.37960002221236    -44.16729999912263     27.02140001057298
  H         -11.07940000832032    -42.49449999963544     27.42750000491457
  H         -12.47040000686384    -46.81719999348712     29.56420002609301
  H         -12.23240001513165    -45.57209999436353     26.88559999659418
  H         -13.10300000799237    -47.03319999055544     27.28579999617389
  H         -11.36630000688790    -46.97349999501703     27.46789999810379
  H         -13.71859999895250    -44.24929999950881     28.56390000462600
  H         -13.90230000246368    -44.89740000055816     30.17610000389874
  H         -14.57060000150025    -45.75509999980236     28.80830000193236
