70
Coordinates from ORCA-job rc_vx_p3s_v3 E -2027.375318938113
  C          -4.69100000958265    -42.25600012279909     28.39499989218616
  O          -5.22484079500078    -41.88713963931323     29.64927681580941
  H          -5.35920881343878    -41.85956569581146     27.61879138922669
  H          -4.65034684154355    -43.34993087072865     28.25499380400906
  H          -4.58147803807957    -42.11552727518779     30.32934202814376
  H          -3.69177099268425    -41.84496990054630     28.25113908493442
  C          -6.71099998978094    -48.52399999007516     27.04599999938674
  C          -6.02072449788283    -47.23681653134739     26.74324027483664
  N          -4.74414945524979    -47.17107484351895     26.25095696049106
  C          -6.45020386977217    -45.92852964297341     26.80588707916770
  C          -4.46086891098313    -45.86729018310781     26.03246792649206
  N          -5.46864684936093    -45.07976164604893     26.35466869194821
  H          -6.99519677203281    -49.04948804863565     26.11960209460859
  H          -7.63074496808996    -48.33515941854940     27.61649742685655
  H          -7.42569443513013    -45.57461039470358     27.13909364984436
  H          -3.49766972428226    -45.55500681493206     25.62876463894215
  H          -6.08516400405543    -49.20705500162632     27.62033899958123
  C          -3.81500014909287    -49.39800015347894     22.38700013693332
  C          -2.45762885687750    -49.27495698392373     23.07630258359512
  C          -2.59728981108168    -48.63058444712664     24.45871496908584
  O          -3.35361912769998    -49.23749159680764     25.27601252451062
  O          -2.02132620163995    -47.54847776139970     24.67743131499322
  H          -3.70413377433072    -49.74287632178196     21.34676831859936
  H          -4.32946679993870    -48.42378590527971     22.35629660114649
  H          -2.00242431849950    -50.27359603065636     23.19056315231575
  H          -1.77065604218736    -48.66479386190002     22.47056071278070
  H          -4.47029985473793    -50.10495984842323     22.89581287100969
  H          -4.13276785924803    -47.99495985866091     25.99995186341102
  C         -10.83523469404276    -43.68009202356265     28.09765124422570
  S         -10.18253041477084    -44.07550268813867     29.75394415424177
  P          -8.25556157413509    -43.19262316063342     29.62819463527121
  C          -7.14440081007435    -44.44346193132903     30.26496999600290
  O          -7.99188318732515    -42.65128114701103     28.25701014738152
  O          -8.21617299497537    -42.09175573272266     30.80855279086449
  C          -9.76268979775312    -40.29621316248016     30.16593913084797
  C          -8.34817581820283    -40.68909911319287     30.54055220950508
  C         -10.27324582155228    -44.58372438842700     27.00028813725706
  N         -10.63685201503349    -44.09870944154510     25.68388196510962
  C          -9.80964594279816    -42.95528572497926     25.26512558748777
  C         -10.63269935771743    -41.80086255659284     24.68542942197791
  C          -8.59559110127620    -43.28460909496378     24.38735793821416
  C         -11.05318597729710    -45.15498265026865     24.75882632068436
  C          -9.97011283676675    -46.18919458636652     24.39908614323068
  C         -11.74019219853015    -44.62112028493959     23.50463558353640
  H         -11.92618726862477    -43.79206414653282     28.18300416763357
  H         -10.62545985446061    -42.62307565279782     27.88467724949482
  H          -6.14743418291534    -43.98552035548360     30.30614180860547
  H          -7.14625234654643    -45.30750883276906     29.58781141418203
  H          -7.46606514126757    -44.74982213773334     31.26996764424729
  H          -9.83664369314189    -39.20172135314591     30.07924982101036
  H         -10.47943688993647    -40.63361347819833     30.92924870560473
  H         -10.05215761598177    -40.73020563159582     29.19672381818989
  H          -8.03664898716377    -40.19518840025538     31.47152600147391
  H          -7.62873468052681    -40.41055117037472     29.75603088665061
  H         -10.66358322369466    -45.60294175332558     27.14994444956711
  H          -9.17802484773522    -44.65069173404857     27.13581041360516
  H          -9.38265134434122    -42.57309492201501     26.20546863600416
  H         -11.02599349878354    -42.01917279832386     23.68186557903219
  H         -10.01308030151020    -40.89319376088805     24.60964155211768
  H         -11.48262169430346    -41.57698545460973     25.34786104596918
  H          -8.87996890333705    -43.64193301063365     23.38636642837258
  H          -7.95350960449155    -44.04514140644501     24.85754160476651
  H          -7.98429894845029    -42.37829741252819     24.25218593200587
  H         -11.82860754661615    -45.71310763357447     25.31470009332801
  H          -9.21773050990922    -45.78603320223710     23.70718549421526
  H         -10.43492937442151    -47.06350163091881     23.91615325789544
  H          -9.44411324459602    -46.54884216958530     25.29732155505423
  H         -11.04179536833321    -44.09492068206499     22.83645900766487
  H         -12.55418648761360    -43.92886560249364     23.76568686438879
  H         -12.17263202894378    -45.45906975562471     22.93723279461084
