70
Coordinates from ORCA-job rc_vx_p3s
  C          -4.77889055972230    -41.89874771894964     28.45049704677841
  O          -5.07013285740693    -41.87688629637513     29.82825029227978
  H          -5.25545139825133    -41.04240901697513     27.94409682985824
  H          -5.16381323953679    -42.81470939133027     27.97333667471307
  H          -5.23846333141750    -42.80620197222704     30.07635904283946
  H          -3.69177114842109    -41.84497055014822     28.25113887897012
  C          -7.15414092107399    -48.93906535141895     27.63862493670596
  C          -7.31848898245038    -47.47313367338822     27.39801095857355
  N          -6.67613368357287    -46.82223895705323     26.37869421069941
  C          -8.05039934619479    -46.50061089843771     28.04741739363674
  C          -7.02310243932575    -45.51845122142760     26.44960369277792
  N          -7.85577298376460    -45.28078341222749     27.44331332648979
  H          -7.66298367653028    -49.53672688634382     26.86526984619383
  H          -7.57914488470933    -49.21681098980665     28.61346545175879
  H          -8.67178261812185    -46.61924665853188     28.93732355271746
  H          -6.64017486501742    -44.77211741249847     25.75192348742767
  H          -6.08516379980166    -49.20705461726167     27.62033884829999
  C          -3.48630018704649    -49.62370594069230     23.00992822523057
  C          -3.10003535121826    -49.51800615791500     24.47640883540019
  C          -4.04898059358303    -48.68026760700523     25.34583882629042
  O          -4.95221870085948    -48.03324664612277     24.74143167555419
  O          -3.86034946960310    -48.69892029923452     26.57805467621198
  H          -2.75036390141842    -50.21376035884941     22.44123895632471
  H          -3.55609725628455    -48.62715289747133     22.54941116702836
  H          -3.03096859513740    -50.51402228929408     24.94466618137881
  H          -2.09477127758602    -49.07464379750139     24.58732689738182
  H          -4.47030005146361    -50.10495983300233     22.89581327255931
  H          -5.98605471168013    -47.27643456006783     25.71162217382505
  C          -8.13460022749663    -44.23332993129367     32.10236437569493
  S          -7.37480770554763    -45.88818420018121     32.25788655150532
  P          -5.58788596930762    -45.61251944452042     31.18101855389497
  C          -5.24718233946794    -47.20222893860709     30.44165866467353
  O          -5.69819262696081    -44.43477030200572     30.25727776033313
  O          -4.35953053025788    -45.48750483515072     32.21860728163565
  C          -4.60327549871028    -43.82151163365944     33.98899801649210
  C          -3.89065124486653    -44.22303314336938     32.71586183057141
  C          -8.94596675215736    -44.05019015042198     30.82155788727822
  N          -9.49951128376592    -42.70913306563577     30.74694803586958
  C          -8.51272321835054    -41.71566667851236     30.30088220465656
  C          -8.58799503804364    -40.38765315214040     31.06216389766783
  C          -8.41463046610167    -41.48403473920840     28.78822616740488
  C         -10.89097764266440    -42.68899327742235     30.28124861231294
  C         -11.12701834097115    -43.21050756810436     28.85190651934487
  C         -11.57675868910229    -41.34016602288067     30.47978788039088
  H          -8.78551024459538    -44.13432148755528     32.98354462071488
  H          -7.34595712648779    -43.47400249805062     32.18951274795533
  H          -4.29218617325149    -47.13364546537696     29.90127757975770
  H          -6.05492038189091    -47.44164075355086     29.73868826993505
  H          -5.18106532068992    -47.96872478344397     31.22594412759252
  H          -4.13741100382148    -42.91689224207465     34.40715832988113
  H          -4.53537188245516    -44.62418338307498     34.73786406465242
  H          -5.66633982367034    -43.60246145864257     33.80924443698608
  H          -2.81598355589994    -44.36754680715439     32.89546670868447
  H          -3.99992141966231    -43.46408609008822     31.92546157456440
  H          -9.77215199152872    -44.77839298579784     30.83239896587105
  H          -8.32330899726731    -44.29950731564512     29.94218343273835
  H          -7.54082171382749    -42.14625469621211     30.58711414422606
  H          -9.41689167117952    -39.74672733827854     30.72956599663450
  H          -7.65270692664232    -39.82588603906454     30.90787196992177
  H          -8.70376262289621    -40.57007997417355     32.14087961612737
  H          -9.29416244435851    -40.95671885916297     28.38792431765996
  H          -8.29989501252399    -42.43494979958471     28.24578559715695
  H          -7.52892678093440    -40.86482991006824     28.57678408375117
  H         -11.40961722036668    -43.39640870453280     30.95304012381644
  H         -10.82443180654347    -42.47961037756180     28.08891280271397
  H         -12.19736990175432    -43.42173858106166     28.70129633727102
  H         -10.57457261578553    -44.14307667982103     28.66075086081272
  H         -11.20208402306880    -40.57783698917120     29.78018644252139
  H         -11.43968370620758    -40.96939327781864     31.50597314028460
  H         -12.65641495471871    -41.44916286810609     30.29618228590093
