70
Coordinates from ORCA-job rc_vx_p3s_v4
  C          -4.69099998995215    -42.25600025929815     28.39499991440897
  O          -4.72077261473316    -43.43625755793963     29.14368333793562
  H          -5.26822858925168    -41.48872117961403     28.93679570684365
  H          -5.16340106694153    -42.38035979359505     27.40851657130232
  H          -4.61292171943072    -44.16609293737764     28.49680537447811
  H          -3.69177100883209    -41.84496978996405     28.25113906733305
  C          -6.71099998166443    -48.52399999964508     27.04600000790565
  C          -5.85591394635321    -47.31431269794303     26.84150787112213
  N          -4.56387057119691    -47.42644191657710     26.39081108461080
  C          -6.01073732071279    -45.98699072822431     27.16732621479247
  C          -3.99684671108966    -46.20586319166954     26.45998412440694
  N          -4.83789107008031    -45.30444055689713     26.92869449825611
  H          -6.98790575379531    -49.01331010248197     26.09973255996328
  H          -7.62006852731577    -48.27428732824023     27.60717362737283
  H          -6.88661492857797    -45.48369235979770     27.57490968349165
  H          -2.96440124752851    -46.03970554344166     26.15282399479013
  H          -6.08516401302841    -49.20705499024962     27.62033899435318
  C          -3.81500007856163    -49.39800008083437     22.38700007610633
  C          -2.43510168454673    -49.38322670643861     23.03806696792489
  C          -2.51502306362987    -48.91502391068390     24.49453518000800
  O          -3.37439106294955    -49.50613200116013     25.21622531435031
  O          -1.78311490022560    -47.97887574275373     24.86657986254488
  H          -3.76539581690618    -49.68517878101488     21.32501183305534
  H          -4.28698153212966    -48.40353230985031     22.44128652194999
  H          -2.00006133408709    -50.39795795613148     23.02365106268212
  H          -1.74261569586673    -48.72537066795135     22.49130887353254
  H          -4.47029992391603    -50.10495992030089     22.89581292960897
  H          -4.08898921188012    -48.29935981693290     26.02902100723565
  C         -10.70406045929705    -43.65509872392685     28.09067010132360
  S         -10.00810924998081    -43.99454697559897     29.74590556320796
  P          -7.99792379477041    -43.35062485238686     29.52176690694556
  C          -7.09275169837658    -44.44480682285068     30.60544832133867
  O          -7.63392782277115    -43.26813926500196     28.07271432041729
  O          -7.84479972007615    -41.93086135383508     30.28738434563265
  C          -9.49244655588160    -40.15683551293905     30.51116886444804
  C          -8.35066541144817    -40.72205190087195     29.69365200464264
  C         -10.22830358588205    -44.60375763548437     26.98766666431827
  N         -10.63685212501034    -44.09870936800183     25.68388195610266
  C          -9.80964587736697    -42.95528576883769     25.26512561953983
  C         -10.63269935925829    -41.80086256549858     24.68542937143036
  C          -8.59559113449718    -43.28460911215834     24.38735791195701
  C         -11.05318585121452    -45.15498266675635     24.75882628733918
  C          -9.97011287909066    -46.18919459434401     24.39908615721144
  C         -11.74019229742870    -44.62112030886644     23.50463562452500
  H         -11.79256162629677    -43.73185428319799     28.23074392528651
  H         -10.48517920360401    -42.61020963441273     27.83350163339645
  H          -6.04004334279534    -44.21085900811441     30.39973548490163
  H          -7.31891155516348    -45.48171243321670     30.32580209403932
  H          -7.36370685268548    -44.24793482411884     31.65117252644392
  H          -9.83664369602569    -39.20172134205981     30.07924981868473
  H          -9.17337553112303    -39.96489445655133     31.54644166926595
  H         -10.33475422080617    -40.86365279796539     30.53538336309231
  H          -7.50262631477900    -40.02177401932180     29.65118699815654
  H          -8.65207654939461    -40.92157392842159     28.65450009619900
  H         -10.66358320896480    -45.60294175265540     27.14994445269756
  H          -9.13460046435455    -44.72523157210007     27.07189743823386
  H          -9.37821791904693    -42.57292807882175     26.20233348236556
  H         -11.02599349674938    -42.01917279737847     23.68186559161700
  H         -10.01308030524750    -40.89319375301582     24.60964157188911
  H         -11.48262169752843    -41.57698544967624     25.34786105664128
  H          -8.87996890054324    -43.64193300715127     23.38636643293835
  H          -7.95350959743149    -44.04514139634887     24.85754161243748
  H          -7.98429894272202    -42.37829740791057     24.25218593169164
  H         -11.82860755902975    -45.71310763628303     25.31470009656148
  H          -9.21773049738122    -45.78603319701259     23.70718549642322
  H         -10.43492936826834    -47.06350162446725     23.91615324752845
  H          -9.44411323924572    -46.54884216949703     25.29732155428424
  H         -11.04179535055980    -44.09492068096755     22.83645899269998
  H         -12.55418645968235    -43.92886559213510     23.76568685721694
  H         -12.17263201829835    -45.45906975168938     22.93723279313829
