70
Coordinates from ORCA-job rc_vx_p3s_v2
  C          -4.69100002078521    -42.25600003951840     28.39500001858138
  O          -5.23778645217856    -41.89055185650788     29.64283216158969
  H          -5.35565143293828    -41.86505147870808     27.61188765336742
  H          -4.64806828888025    -43.35096532463376     28.25807142376279
  H          -4.60165325032817    -42.11972010990686     30.33024007460269
  H          -3.69177097724569    -41.84496996531927     28.25113898204911
  C          -6.71099999550365    -48.52399999945516     27.04599998970022
  C          -6.02416012539388    -47.24015628261203     26.71605898135285
  N          -4.76205875492959    -47.16949374399697     26.18405136306182
  C          -6.46423312520926    -45.93376034470270     26.76984905591737
  C          -4.49815348392185    -45.86372056248458     25.94651947982795
  N          -5.50305754214513    -45.08235737937709     26.28576460515826
  H          -7.01293282342530    -49.05678693253311     26.12964559323362
  H          -7.62180923442617    -48.32106283241662     27.62603910348117
  H          -7.43642920382081    -45.58051354687220     27.11136241130983
  H          -3.55009254770879    -45.53556454865878     25.51781131068316
  H          -6.08516400424919    -49.20705499446585     27.62033900467052
  C          -3.81500007333539    -49.39800007524478     22.38700007018769
  C          -2.43096424977839    -49.34352228762879     23.02165543764092
  C          -2.44153180716680    -48.79935458457864     24.45794782358766
  O          -3.38775392379769    -49.20984757995933     25.19825395751160
  O          -1.55936997621339    -47.99144428026721     24.79752329841294
  H          -3.75625587046693    -49.69830566244952     21.32859434333509
  H          -4.30444056971338    -48.41120864220314     22.42120233329343
  H          -1.98242686877600    -50.35289495573047     23.04755446640594
  H          -1.74957723470167    -48.71672118833238     22.42626360160869
  H          -4.47029992888087    -50.10495992599652     22.89581293481106
  H          -4.15411867493121    -47.99058715358530     25.90623474448485
  C         -10.85932659087579    -43.68370593485267     28.09205570438217
  S         -10.21447631326155    -44.03545453210666     29.75642295870424
  P          -8.27688088826067    -43.17643419851192     29.62254406889802
  C          -7.16747999186382    -44.44123167628469     30.23225674167697
  O          -8.01144927586878    -42.62357681780169     28.25585075812580
  O          -8.21697300204013    -42.09204339595816     30.81831223099358
  C          -9.76970648302251    -40.29521523272849     30.17650807920382
  C          -8.35493627183225    -40.68951535295065     30.55448819467386
  C         -10.27768517384612    -44.58237830049779     27.00319718408560
  N         -10.63685183211957    -44.09870947863272     25.68388195467274
  C          -9.80964603294585    -42.95528571620695     25.26512555733122
  C         -10.63269936638151    -41.80086254487850     24.68542943087714
  C          -8.59559109804642    -43.28460909376285     24.38735796458177
  C         -11.05318616595063    -45.15498261932967     24.75882635038110
  C          -9.97011281373155    -46.18919458975081     24.39908613515448
  C         -11.74019216143312    -44.62112029585360     23.50463557207468
  H         -11.94637866897742    -43.82612211525648     28.18219493210461
  H         -10.68024514660572    -42.62304398485895     27.86747340887191
  H          -6.17211852661616    -43.98050279151315     30.27636582650086
  H          -7.17369467733241    -45.29185594591418     29.53853721221364
  H          -7.48183244520828    -44.77169500077677     31.23181711896221
  H          -9.83664369276213    -39.20172135648620     30.07924982244650
  H         -10.49267907198929    -40.62457820557673     30.93730526107973
  H         -10.05565284814030    -40.73333466783300     29.20753297518774
  H          -8.04345951370294    -40.19767000739076     31.48633351276809
  H          -7.64166060989805    -40.40442474798799     29.76682209297041
  H         -10.66358324418178    -45.60294175807200     27.14994444660859
  H          -9.18092892587914    -44.63084989504202     27.12874034560744
  H          -9.38127768123997    -42.57247081749187     26.20453593360826
  H         -11.02599349302056    -42.01917279989181     23.68186557965968
  H         -10.01308029842352    -40.89319376168465     24.60964154614698
  H         -11.48262169059067    -41.57698545866583     25.34786103727435
  H          -8.87996890225427    -43.64193300699559     23.38636642726534
  H          -7.95350960136554    -44.04514141107965     24.85754160265960
  H          -7.98429894296492    -42.37829741157780     24.25218592966485
  H         -11.82860751397634    -45.71310764583959     25.31470008764915
  H          -9.21773050675955    -45.78603320313191     23.70718549853336
  H         -10.43492937658641    -47.06350162930762     23.91615325678971
  H          -9.44411324287876    -46.54884217065774     25.29732155639235
  H         -11.04179536940645    -44.09492067238888     22.83645900563101
  H         -12.55418648517654    -43.92886560502691     23.76568686694059
  H         -12.17263202654341    -45.45906975378267     22.93723279553632
