70
Coordinates from ORCA-job scan_alkoxide E -2027.328836095059
  C          -4.69100039919874    -42.25600014868857     28.39499956428598
  O          -5.43434885473587    -41.81940525768528     29.43672796513739
  H          -5.16356511323357    -42.11229103609574     27.38043535842067
  H          -4.47394948958354    -43.36615905288737     28.41415563637569
  H          -3.69177072566044    -41.84496991518941     28.25113933345074
  C          -6.71100006814857    -48.52399983679893     27.04599989133727
  C          -6.22384041853777    -47.12134146406769     26.98259897000585
  N          -5.03264551864045    -46.75103328120265     26.40418431949049
  C          -6.89170936408611    -45.99059201331758     27.36555621582142
  C          -4.99473599278186    -45.43074260504130     26.42315573484649
  N          -6.10636736857664    -44.93209721752366     26.99062142696467
  H          -6.78929548515713    -48.94671345868763     26.03144417915714
  H          -7.71594132791230    -48.54783661672589     27.48992385625189
  H          -7.83809945072455    -45.86694628764925     27.88299714147552
  H          -4.18556099659117    -44.81250292212139     26.03665448413176
  H          -6.08516391701530    -49.20705513241969     27.62033910187627
  C          -3.81500002862225    -49.39800000548204     22.38700005464941
  C          -2.55469760026452    -49.04883448907755     23.18134003971749
  C          -2.88118807339369    -48.08823065431609     24.29697065416575
  O          -3.69517123284384    -48.59971649087397     25.19228699615191
  O          -2.47871752548501    -46.93899985011290     24.33451439136716
  H          -3.53671362879618    -49.85966448726773     21.42742445944365
  H          -4.39849831753518    -48.49400190367449     22.15314776690395
  H          -2.10393426119461    -49.95906436433276     23.60773601580260
  H          -1.80704413213150    -48.56815543996746     22.53592169524887
  H          -4.47029997665357    -50.10495999035192     22.89581296229417
  H          -4.11467215771449    -47.83322260138623     25.74300493778793
  C         -10.42559412009628    -43.71899454397200     28.16206607700630
  S          -9.47539979812479    -44.21437602318259     29.64757170748157
  P          -7.60419602656795    -43.06086055706839     29.46022828420576
  C          -6.54286194075845    -44.20224970507547     30.36355018946755
  O          -7.56814888210486    -42.78183715266929     27.97712401017829
  O          -7.89794292200380    -41.89367376342674     30.52653844081192
  C          -9.64249508544618    -40.27709820704522     30.15990902430764
  C          -8.15209909846205    -40.54360578244834     30.15166680862262
  C         -10.16719231289610    -44.63359540324691     26.95786630808063
  N         -10.63685173061839    -44.09870899104529     25.68388194522389
  C          -9.80964605963780    -42.95528616334040     25.26512577479821
  C         -10.63269916661825    -41.80086294059794     24.68542899408961
  C          -8.59559094767497    -43.28460879216259     24.38735820962967
  C         -11.05318655858157    -45.15498307157725     24.75882629858627
  C          -9.97011284579481    -46.18919495732563     24.39908592897517
  C         -11.74019174550355    -44.62111992094356     23.50463593606505
  H         -11.48687599411344    -43.73764760317008     28.45255199066592
  H         -10.16964593440462    -42.67678853762129     27.93156839862117
  H          -5.60630390623683    -43.65552309103897     30.52428231439468
  H          -6.39431848712178    -45.12802323645799     29.79511539639230
  H          -7.04335568223948    -44.43409708283671     31.31471390503806
  H          -9.83664400462748    -39.20172100869659     30.07924996340411
  H         -10.08336341806056    -40.63239580928979     31.10324361717012
  H         -10.14925116578733    -40.78767544950908     29.32711757950967
  H          -7.63543329181518    -39.91867641385729     30.89535352637576
  H          -7.68530734818640    -40.34407470082855     29.17595562575050
  H         -10.66358293440295    -45.60294198594225     27.14994404946150
  H          -9.08389802028257    -44.82861386117295     26.92373060363401
  H          -9.37759107034470    -42.57047897098025     26.19941069441205
  H         -11.02599285019130    -42.01917300170620     23.68186595491123
  H         -10.01307998211196    -40.89319400345619     24.60964194853135
  H         -11.48262200360396    -41.57698496654825     25.34786120671731
  H          -8.87996901640369    -43.64193306402677     23.38636596715333
  H          -7.95351001588808    -44.04514104575096     24.85754195653071
  H          -7.98429898850617    -42.37829702842641     24.25218598817941
  H         -11.82860789711129    -45.71310797839374     25.31469995551605
  H          -9.21773101151838    -45.78603301680422     23.70718499996140
  H         -10.43492901915456    -47.06350200518968     23.91615300402012
  H          -9.44411301116657    -46.54884199693092     25.29732199996447
  H         -11.04179503420698    -44.09492099223061     22.83645900066688
  H         -12.55418604465219    -43.92886603026754     23.76568701307930
  H         -12.17263201672600    -45.45907000970531     22.93723299664060
  H          -6.36093848089597    -43.95143816023069     27.18091179021937
