88
Coordinates from ORCA-job scan2d_oxh E -2536.228390005263
  C          -4.25655258200327    -42.69613538129670     29.14763018514989
  O          -5.69426779378784    -42.84634073048134     29.50018772470700
  H          -3.84098869084351    -43.69641889989271     28.94235369114216
  H          -3.77113400273118    -42.31454170546572     30.06350525426312
  H          -6.03216518782623    -43.41322020466301     28.74887353786551
  H          -3.69177533502289    -41.84496635050561     28.25114066412232
  C          -6.64057255982517    -48.53473263160873     26.94052199743808
  C          -6.16921341056936    -47.11594194123814     27.02306386853841
  N          -4.97892629502621    -46.67920885768565     26.49482807706800
  C          -6.72119877194814    -46.00822418134842     27.62351124686948
  C          -4.86062990147385    -45.36726949213285     26.78981194464349
  N          -5.89471917767867    -44.91988069627252     27.48270134754198
  H          -6.52070586783970    -48.93144183418803     25.92103462006729
  H          -7.70483187997145    -48.58969321114981     27.20841305800650
  H          -7.65521485917589    -45.92583329201819     28.16885266311822
  H          -3.99861996460188    -44.77301404131747     26.48365278129478
  H          -6.08516399283441    -49.20705504652442     27.62033901010234
  C          -3.40242929682861    -50.34570607957001     23.02097145809703
  C          -3.06362864411691    -50.61271330550331     24.47987222059589
  C          -3.34368675587474    -49.44995831674139     25.44670555632080
  O          -3.61848774384341    -48.33038538758849     24.92061596710751
  O          -3.27446313423688    -49.68430259825980     26.66587099018949
  H          -3.17511392555509    -51.21816926553360     22.38850805527682
  H          -2.83162199847189    -49.48738944274504     22.63686139862397
  H          -3.61087113586407    -51.48971713795018     24.86387579997468
  H          -1.99486833074783    -50.86836883512084     24.59024151514392
  H          -4.47029998320995    -50.10496004057945     22.89581296352261
  H          -4.33894733107561    -47.27611709844660     25.88847941189612
  N          -7.63693010192755    -40.17712935897014     31.37949267441217
  H          -7.17455750086394    -40.36945547759091     30.49929809774914
  H          -8.70372233454304    -39.91025492732424     31.33718071829544
  C          -6.95599992141519    -39.64699662701577     32.36700086977332
  O          -7.44199908266976    -39.39700091803302     33.47400098208832
  H          -5.87838501797848    -39.61832099939739     32.20568000635571
  N          -8.92977991446688    -39.07488723223399     29.08403394367374
  H          -8.30635525541012    -39.85871132554677     28.92107537132022
  H          -9.18698905527095    -38.51394108392113     28.25779995404118
  C          -9.62900000953559    -38.97500535895007     30.22999653624952
  O         -10.60900086521407    -38.24200086413459     30.40400003518048
  H          -9.28002253804990    -39.62625122785365     31.03136493073475
  N          -4.39878989053124    -39.50286282494496     28.45746441548679
  H          -5.26056632780709    -39.99047798616618     28.67767278891559
  H          -4.38481193778034    -38.47214598837275     28.42150114854543
  C          -3.26300139334763    -40.13999991433186     28.13899997940395
  O          -2.22300001612830    -39.55500003303987     27.82999983740120
  H          -3.27576059713494    -41.22927958256281     28.17658539405001
  C          -9.26365467304932    -45.76014608172415     30.89913136579567
  S          -7.51570499267678    -45.15165066790298     30.83836562193762
  P          -7.52040611056941    -43.02501137950016     31.04721574040353
  C          -6.04764367777189    -42.68487702674501     32.05549003819579
  O          -8.07452802583578    -42.31611547298148     29.85003414354402
  O          -8.79958495989001    -42.85623831011219     32.23393592274441
  C         -10.37600539053818    -42.13592674158722     34.20301420903404
  C          -8.92164268207684    -42.49845063949837     33.65258073872658
  C         -10.06560514596483    -45.96039471333770     29.58191435705899
  N         -11.30279976250729    -45.18900005557857     29.58019975111480
  C         -10.93760014009639    -43.83739992665051     29.09520016498075
  C         -11.10063680011130    -42.74382937934799     30.12712396628558
  C         -11.54409992154645    -43.40230005109771     27.75129993041914
  C         -12.44070012178757    -45.91759999881377     28.98560023222265
  C         -12.27299997740939    -46.41110000310762     27.54839996183881
  C         -13.75769997587003    -45.14649997398259     29.14559990520184
  H          -9.14553914314563    -46.71383807530036     31.43346463066102
  H          -9.81799809641347    -45.08335110672542     31.56266372383796
  H          -5.49920679250783    -41.83071947664531     31.65122363204135
  H          -5.39705968163418    -43.56752748297104     32.02031077198910
  H          -6.35063882962488    -42.49241891276613     33.09182268528340
  H         -10.41919998015989    -41.46750000477478     35.12829997259649
  H         -11.08020000671634    -42.95590000403293     34.49520001574708
  H         -10.92560000460534    -41.55790002359189     33.45839998832194
  H          -8.50928648778069    -43.32601704645115     34.25418112137360
  H          -8.30033215751956    -41.60705316791189     33.83014118680492
  H         -10.32060001016624    -47.00060001939117     29.34210002065880
  H          -9.43078696087362    -45.68155492587149     28.72212783253799
  H          -9.85306011280392    -43.86389116910761     28.91189001182203
  H         -12.14419999305276    -42.55260000354571     30.31029999328911
  H         -10.66580000507257    -41.81479998510443     29.74199999945882
  H         -10.59330091056142    -42.97938054394837     31.06701657357646
  H         -12.59540000303870    -43.24229997406117     27.86960001269279
  H         -11.37960002452879    -44.16730000110255     27.02140001178596
  H         -11.07940000408657    -42.49449999635782     27.42750000349363
  H         -12.47039998218711    -46.81720000294715     29.56419996110470
  H         -12.23240000283949    -45.57210000290455     26.88560000197429
  H         -13.10300000018617    -47.03320000230169     27.28580000523000
  H         -11.36630000104450    -46.97350000023553     27.46790000154789
  H         -13.71859999883539    -44.24929999708397     28.56390001882817
  H         -13.90230000316222    -44.89740001008365     30.17610001214085
  H         -14.57060000096521    -45.75510000070287     28.80830000548456
