88
Coordinates from ORCA-job scan2d_oxh E -2536.191028942322
  C          -4.27262218305612    -42.64174021380802     29.19939719181118
  O          -5.68995254634085    -42.83242018439105     29.47829015580416
  H          -3.75687689355826    -43.61881280538818     29.10409061163717
  H          -3.81515398413846    -42.13141391264150     30.07493644527978
  H          -5.91331789476027    -43.85692408657618     28.55065893931365
  H          -3.69177536189602    -41.84496632301144     28.25114074058252
  C          -6.50642026769764    -48.59442100818425     26.80458762664028
  C          -6.10358620627366    -47.16401185631351     26.96108553183753
  N          -4.94688132405568    -46.63972425168224     26.43617522708771
  C          -6.68164332311767    -46.15036787937034     27.68074465344588
  C          -4.84917982074782    -45.36616787886577     26.84259760490102
  N          -5.88628183192129    -45.03459531901989     27.60162303418781
  H          -6.14882240934281    -48.99993029449522     25.84802291970736
  H          -7.59979340490934    -48.69226065407226     26.84363978227445
  H          -7.59643720647908    -46.16233872332467     28.26196567403409
  H          -4.02500006694781    -44.70475318739145     26.57899873120660
  H          -6.08516399304369    -49.20705505002572     27.62033900975883
  C          -3.37136118900052    -50.18131229348045     22.89958963706270
  C          -2.83796853884351    -50.34788531994046     24.31486613853289
  C          -3.17407500346578    -49.20741134489626     25.28610799663376
  O          -3.61367812238571    -48.13263681978794     24.76818675993819
  O          -2.99097225301071    -49.40100937720290     26.49795906376930
  H          -3.08923843365689    -51.03239115754702     22.26067719933333
  H          -2.97981560859489    -49.26252074200070     22.43886395760737
  H          -3.20769357962239    -51.27982008951975     24.77317286693375
  H          -1.73776662528238    -50.44408251705676     24.30535440745788
  H          -4.47029998291153    -50.10496004357497     22.89581296098637
  H          -4.28937600675379    -47.19488978986547     25.77760586150466
  N          -7.63566239981807    -40.17082320511470     31.37776572373585
  H          -7.17282543522334    -40.36955440191444     30.49933405486193
  H          -8.70372225092826    -39.91025443721103     31.33718100789861
  C          -6.95599992772802    -39.64699671425887     32.36700084377745
  O          -7.44199908877219    -39.39700091256403     33.47400098098789
  H          -5.87838501752782    -39.61832099698204     32.20568000206619
  N          -8.93294830209603    -39.07906655686259     29.08261294696350
  H          -8.31187109833333    -39.86593147771580     28.92281027153707
  H          -9.18698906606835    -38.51394110228783     28.25779994597883
  C          -9.62900001094345    -38.97500524943206     30.22999662726871
  O         -10.60900084106737    -38.24200083877298     30.40400004266843
  H          -9.28002262455097    -39.62625176173616     31.03136458089720
  N          -4.39998205519034    -39.50192142611119     28.45312380508024
  H          -5.25807672130874    -39.99265103433770     28.68122596275883
  H          -4.38481193924101    -38.47214598870013     28.42150113998008
  C          -3.26300140443858    -40.13999990544644     28.13900002697659
  O          -2.22300000921150    -39.55500003463705     27.82999984856735
  H          -3.27576057152982    -41.22927961192714     28.17658526870131
  C          -9.25515285400325    -45.74664504154113     30.88835927087746
  S          -7.51269503837667    -45.13048788670658     30.79246434265492
  P          -7.51685916499308    -43.00549156865815     31.02504757506773
  C          -6.05526494712550    -42.67082728221766     32.05040033210373
  O          -8.10031218248396    -42.27804619777179     29.85450205667372
  O          -8.80693623958716    -42.86667421850050     32.23765523206667
  C         -10.37639748796032    -42.13571136744473     34.20317505079697
  C          -8.92213621152356    -42.49725962311600     33.64837801044532
  C         -10.06372282415403    -45.95868343406582     29.57688530433309
  N         -11.30279973567858    -45.18900006659576     29.58019972223615
  C         -10.93760016182739    -43.83739991695970     29.09520018457270
  C         -11.10090185754245    -42.74353138879797     30.12690275695812
  C         -11.54409990692090    -43.40230005656163     27.75129992078249
  C         -12.44070014149993    -45.91759999521678     28.98560025702119
  C         -12.27299997122041    -46.41110000593702     27.54839995886933
  C         -13.75769997123754    -45.14649997036962     29.14559989396501
  H          -9.13553737874954    -46.69337712983006     31.43454895325244
  H          -9.80220650192055    -45.05925557587253     31.54683908294602
  H          -5.48341299550458    -41.83657336477699     31.63693861089835
  H          -5.42281565845467    -43.56653282022239     32.03293732297890
  H          -6.36895177371156    -42.45683471192243     33.07976255822074
  H         -10.41919997728150    -41.46750000479985     35.12829996851651
  H         -11.08020000719005    -42.95590000403862     34.49520001776018
  H         -10.92560000650244    -41.55790002544394     33.45839998667051
  H          -8.50472607250694    -43.31465061739664     34.26169200057652
  H          -8.30613948052520    -41.60073567930959     33.82147828368252
  H         -10.32060001522216    -47.00060002220584     29.34210002273834
  H          -9.43076803211458    -45.67130862939473     28.71712945505153
  H          -9.85294289923256    -43.86208122370975     28.91247973601423
  H         -12.14419999191250    -42.55260000436144     30.31029999257979
  H         -10.66579999529726    -41.81479997039438     29.74200000752004
  H         -10.59045090335108    -42.97659910265921     31.06591726502516
  H         -12.59540000442558    -43.24229997095260     27.86960001441829
  H         -11.37960002913690    -44.16730000166995     27.02140001381159
  H         -11.07940000518806    -42.49449999617740     27.42750000416626
  H         -12.47039997874040    -46.81720000343487     29.56419995730514
  H         -12.23240000422122    -45.57210000294794     26.88560000192893
  H         -13.10300000090600    -47.03320000190588     27.28580000553119
  H         -11.36630000167002    -46.97349999996614     27.46790000157326
  H         -13.71859999881938    -44.24929999695788     28.56390002104781
  H         -13.90230000394451    -44.89740001158843     30.17610001373894
  H         -14.57060000129847    -45.75510000094538     28.80830000614943
