70
Coordinates from ORCA-job scan_alkoxide E -2027.383111048307
  C          -4.69100049482622    -42.25599991199349     28.39499934352035
  O          -5.29381326621289    -41.79988666893787     29.59508587762194
  H          -5.29400919912041    -41.97723836712645     27.51745383032831
  H          -4.57080719730543    -43.35190469723245     28.40740752495892
  H          -3.69177068013724    -41.84497009267056     28.25113952161029
  C          -6.71100030830946    -48.52399968525822     27.04599977190007
  C          -6.40150766109307    -47.06946876599583     27.10087507982939
  N          -5.33728772904278    -46.52596118022728     26.41998426268958
  C          -7.14326917147672    -46.04983013192731     27.64428937852366
  C          -5.44044470119923    -45.21701960909076     26.53356815736363
  N          -6.52396948565863    -44.88620595963022     27.26201408580703
  H          -6.66489887138562    -48.86700961767230     26.00067750480039
  H          -7.74233090267022    -48.68974626388778     27.39047093560088
  H          -8.05074989914496    -46.05130316461329     28.24487224307457
  H          -4.75900479364534    -44.48483757981508     26.10161337152862
  H          -6.08516372405715    -49.20705527878434     27.62033921317361
  C          -3.81500003594528    -49.39799999637211     22.38700008379013
  C          -2.65825404175544    -48.88166972290716     23.24544366586672
  C          -3.12274876157508    -47.84754325549768     24.24184042760600
  O          -3.96774755371126    -48.32882802850310     25.12613271086074
  O          -2.78165158519213    -46.67936935807353     24.21039216933665
  H          -3.41705987772006    -49.91906095617409     21.50309011329038
  H          -4.43286005876861    -48.56481395276382     22.01737190317136
  H          -2.18184188489518    -49.71241953827437     23.79001319600047
  H          -1.89313771179847    -48.40804375775511     22.61544227754903
  H          -4.47029996973627    -50.10495999543568     22.89581294976621
  H          -4.39140335144088    -47.56027590669797     25.65854621572351
  C         -11.11053250122029    -43.75192492115726     28.12732341561252
  S         -10.75815918038709    -44.35225596942318     29.82169838196943
  P          -6.85496353149990    -42.43377073491826     29.82091960461046
  C          -6.68583298836422    -43.95608693180753     30.72877651847869
  O          -7.55014189594850    -42.53431718782481     28.49574868110887
  O          -7.47941233288518    -41.45310547887169     30.90063968498350
  C          -9.39521252660311    -40.20694331493674     30.04295748625410
  C          -7.98617983638928    -40.14226917048617     30.58912590343638
  C         -10.37295311030483    -44.54455437847199     27.04437027205962
  N         -10.63685039510784    -44.09870914692070     25.68388211395379
  C          -9.80964653204263    -42.95528632121520     25.26512514232762
  C         -10.63269929533507    -41.80086268210238     24.68542938195557
  C          -8.59559120879889    -43.28460873085690     24.38735868009885
  C         -11.05318814637586    -45.15498279295562     24.75882662712906
  C          -9.97011259124163    -46.18919500911359     24.39908583571409
  C         -11.74019128961509    -44.62111999059044     23.50463574199970
  H         -12.19374460073941    -43.80315035279138     27.90874883609590
  H         -10.83646815061527    -42.68462233718469     28.02932437328703
  H          -6.24093670533755    -43.75956371701000     31.71232901486895
  H          -6.05399975299905    -44.65180767207679     30.15962069218597
  H          -7.69576424401094    -44.38066201949930     30.83044869075932
  H          -9.83664399562998    -39.20172102909549     30.07924996770099
  H         -10.01268044918807    -40.88596535095644     30.64987505496391
  H          -9.41056499977702    -40.56188356293553     29.00285597535684
  H          -7.95447559681860    -39.59843173129050     31.54255693402995
  H          -7.29630605543519    -39.64122390142657     29.89176525650551
  H         -10.66358305632436    -45.60294203045198     27.14994405374537
  H          -9.29572808284792    -44.49987699035602     27.28696896070414
  H          -9.39326463885750    -42.56898833694283     26.21024224826683
  H         -11.02599277679083    -42.01917302150275     23.68186584150220
  H         -10.01307996864339    -40.89319407121340     24.60964184341690
  H         -11.48262196135621    -41.57698499514942     25.34786116082288
  H          -8.87996898034670    -43.64193306388789     23.38636594858130
  H          -7.95350982555654    -44.04514102276908     24.85754185463890
  H          -7.98429889954110    -42.37829703401070     24.25218592404986
  H         -11.82860762524446    -45.71310808510565     25.31469987228157
  H          -9.21773100993075    -45.78603303039912     23.70718501092962
  H         -10.43492904194731    -47.06350200138463     23.91615302418826
  H          -9.44411301181703    -46.54884199943436     25.29732200849225
  H         -11.04179507886707    -44.09492092081762     22.83645901968654
  H         -12.55418607465176    -43.92886606117602     23.76568705427838
  H         -12.17263202182342    -45.45906999933052     22.93723300874455
  H          -6.83186201922410    -43.94010447244828     27.52911569778107
