88
Coordinates from ORCA-job scan_oxh2 E -2536.294655395987
  C          -4.08221328259429    -42.80556176658774     28.92500741332283
  O          -5.40936299263115    -42.78950935469036     29.47783088360933
  H          -3.90519448398243    -43.73236483447190     28.35626267429390
  H          -3.36952099710916    -42.78884164905766     29.77086683987347
  H          -5.96255149143435    -43.27878908450430     28.83964443060876
  H          -3.69177383634464    -41.84496701780163     28.25114213734948
  C          -6.91476912897638    -48.47972279499670     27.63235966070055
  C          -6.43745749732922    -47.07453681651505     27.43709799693474
  N          -5.60335312784079    -46.69337824016306     26.41703377918945
  C          -6.71531624143910    -45.91377083587397     28.12475765992021
  C          -5.41531936139256    -45.35963241464964     26.52272708884225
  N          -6.07744002780310    -44.84521830747452     27.54450891830056
  H          -7.61994524096604    -48.77273954435800     26.83755608259261
  H          -7.44336184345991    -48.56058082776188     28.59268227770056
  H          -7.30656866137289    -45.80025256321341     29.02881401910892
  H          -4.77658619419695    -44.80127919255728     25.83683107388163
  H          -6.08516400796192    -49.20705496455482     27.62033900587462
  C          -3.49555996308479    -50.50383785398579     23.21030275369295
  C          -3.48875557005906    -50.69495484319265     24.71740008492573
  C          -3.92105325548610    -49.46151394180793     25.52500481213383
  O          -4.42658705337174    -48.50384129438994     24.86840574692719
  O          -3.77003960940773    -49.50323743857355     26.76007658283479
  H          -3.30757269947620    -51.44766792428811     22.67550542414812
  H          -2.73144092315439    -49.77630611065416     22.89491284184625
  H          -4.17895546955306    -51.50717109345723     25.00678721508226
  H          -2.49905817459130    -51.00913262212588     25.08801115213193
  H          -4.47030000850673    -50.10495997421277     22.89581302868099
  H          -5.12029756033586    -47.37358217362922     25.75495333368550
  N          -7.64536942901040    -40.22800508291280     31.39821229336225
  H          -7.17777208525055    -40.52483383072224     30.54771159527997
  H          -8.70372379210268    -39.91026160586750     31.33717731410817
  C          -6.95599993023307    -39.64699527347710     32.36700103850256
  O          -7.44199895418607    -39.39700105043898     33.47400101930592
  H          -5.87838499385004    -39.61832107062235     32.20568005155591
  N          -8.93065613585129    -39.06841247917022     29.08599472131486
  H          -8.17420493527174    -39.72861497651026     28.96114872778179
  H          -9.18698893321967    -38.51394091061499     28.25780003902119
  C          -9.62900003347476    -38.97500666806641     30.22999548802568
  O         -10.60900112578923    -38.24200113705225     30.40399995450512
  H          -9.28002128214581    -39.62624446240038     31.03136902752211
  N          -4.39942317019396    -39.49816700866187     28.45380265324908
  H          -5.24912953532463    -39.98660176486172     28.71331158909537
  H          -4.38481200745113    -38.47214599980671     28.42150097283719
  C          -3.26300090980755    -40.14000001772109     28.13900110088310
  O          -2.22300000392153    -39.55499999428982     27.83000002388770
  H          -3.27576217797651    -41.22927893108338     28.17658276486108
  C          -9.57820918801591    -45.96817994357659     31.19228780858885
  S          -7.82946758751745    -45.49615315834769     31.53210455129317
  P          -7.68388671988121    -43.36935454829839     31.37427887434338
  C          -6.12153198612794    -43.10249033076407     32.22122896923364
  O          -7.95165301330580    -42.84127529117884     30.00568704589590
  O          -8.90064659596893    -42.85673723966660     32.37348121082250
  C         -10.40067755519142    -42.12739725890367     34.23042210659782
  C          -8.97052332359894    -42.52310249408723     33.78049348540730
  C         -10.10214037336545    -45.99257813980156     29.73211940248181
  N         -11.30280007554085    -45.18899996416123     29.58020005351489
  C         -10.93759995878687    -43.83740001745223     29.09519996510727
  C         -11.09897932707706    -42.74515987950942     30.12836134939383
  C         -11.54410002702150    -43.40229999158606     27.75130001566449
  C         -12.44069995600788    -45.91760000695312     28.98559994966822
  C         -12.27300001243307    -46.41109999708500     27.54840000711978
  C         -13.75770001041711    -45.14650000857503     29.14560002087583
  H          -9.63047845970962    -46.96377633721419     31.65753030129834
  H         -10.22140115038433    -45.30340296923077     31.78474809836543
  H          -5.79872647056431    -42.06796549831650     32.07525379283314
  H          -5.37364182398947    -43.76314493806614     31.77139627193126
  H          -6.24395862678213    -43.32334393847116     33.29027667155822
  H         -10.41920002042559    -41.46749999051777     35.12830002097124
  H         -11.08019999540644    -42.95589999521748     34.49519998680557
  H         -10.92560000360903    -41.55789997730250     33.45840000654750
  H          -8.60933453195442    -43.38086823813087     34.37228141808463
  H          -8.29672322980051    -41.67053781004967     33.95610479565499
  H         -10.32059996953841    -47.00059997184228     29.34210000956278
  H          -9.30774037321256    -45.64144897702045     29.05456399852320
  H          -9.85310169519262    -43.87311366335902     28.91152473599740
  H         -12.14420000342307    -42.55259999837078     30.31030000081504
  H         -10.66579998578352    -41.81480000341809     29.74200000529740
  H         -10.60562107727420    -42.98619121452213     31.07335390224194
  H         -12.59539999734340    -43.24230000628152     27.86959999682513
  H         -11.37959999018732    -44.16729999807300     27.02139999611537
  H         -11.07939999779305    -42.49450000013421     27.42749999886805
  H         -12.47040000757493    -46.81719999919265     29.56420000819843
  H         -12.23239999710956    -45.57209999949876     26.88559999987700
  H         -13.10299999871202    -47.03320000011870     27.28579999909971
  H         -11.36629999881402    -46.97350000028060     27.46789999988051
  H         -13.71859999963146    -44.24929999993348     28.56389999621683
  H         -13.90229999833732    -44.89739999666578     30.17609999712393
  H         -14.57059999913202    -45.75509999932878     28.80829999892379
