88
Coordinates from ORCA-job scan_oxh
  C          -4.34421493414714    -42.82410384080840     28.45359216590955
  O          -5.80580329175688    -42.48679857626066     28.58152940599626
  H          -4.29189440897243    -43.57733799441132     27.68507087244141
  H          -4.07770525244103    -43.26323212972378     29.42144848036182
  H          -6.27114921304867    -42.25866934329221     27.77613126822733
  H          -3.69175940239681    -41.84497648480152     28.25113946422904
  C          -6.16017575817237    -48.15682328511502     27.91501619642439
  C          -5.39407281593455    -47.28545229229899     26.97177244997820
  N          -4.20528851085731    -47.69874676705020     26.41687446312891
  C          -5.56801011074688    -45.99207569231753     26.52035486677485
  C          -3.72001704640395    -46.67591156075027     25.67670310683187
  N          -4.51492669009749    -45.61878311746567     25.72259082586407
  H          -7.22348282665429    -47.88918040534550     27.96321183075601
  H          -5.75320019041195    -48.05285220647978     28.93444228547161
  H          -6.40882381287617    -45.33925856106760     26.75400308322789
  H          -2.79001919463004    -46.75002615733601     25.11187971495518
  H          -6.08516424203948    -49.20705411695559     27.62033891028911
  C          -3.66761166352143    -50.82913588452637     23.12549923283838
  C          -4.03760820149773    -51.71968586849534     24.30553562147865
  C          -4.26132244765086    -50.90670415690878     25.59259670471718
  O          -3.30028002722995    -50.16415764340202     25.95657798978538
  O          -5.34098463109927    -51.04327689584790     26.19840198423740
  H          -3.49294550787749    -51.42168140911189     22.19959606609410
  H          -2.75692218721188    -50.25369187922700     23.34913737571086
  H          -4.94387953303309    -52.30480811961502     24.08334594659074
  H          -3.22431372975606    -52.44317178860962     24.48957394535289
  H          -4.47030008628646    -50.10495977781481     22.89581326827194
  H          -3.81905408417533    -48.67977442571593     26.41920073039661
  N          -7.63335960721234    -40.20320462939247     31.38172930351337
  H          -7.19443735193402    -40.24163422739541     30.47055385492481
  H          -8.70373209155353    -39.91029535930362     31.33716201890285
  C          -6.95599934358596    -39.64698583051052     32.36700054663551
  O          -7.44199855933926    -39.39700197240866     33.47400142727370
  H          -5.87838490349624    -39.61832268994904     32.20568065565875
  N          -8.94828555107154    -39.10009048968258     29.07017964050446
  H          -8.41044424428859    -39.95222792343951     28.88957440677898
  H          -9.18698826851350    -38.51393965229222     28.25780046409731
  C          -9.62900042778688    -38.97501339296785     30.22999008597600
  O         -10.60900254258677    -38.24200275604473     30.40399945634056
  H          -9.28001468592661    -39.62621014636706     31.03138932534331
  N          -4.39731852432431    -39.49871617118099     28.45391748548673
  H          -5.24819376115286    -39.98131118163196     28.70269084075112
  H          -4.38481210720189    -38.47214603124439     28.42150114315880
  C          -3.26299925166698    -40.14000094695223     28.13900067038796
  O          -2.22300031177589    -39.55499976138348     27.82999973108442
  H          -3.27577481391162    -41.22927059719675     28.17658548839517
  C          -8.87515916509391    -45.59881105053270     30.20592247073430
  S          -7.40505070398714    -45.08048918470397     29.20904860128633
  P          -7.15544757410817    -43.09148970214356     29.75551298285946
  C          -6.59786052862454    -43.09485449663196     31.37122415082669
  O          -8.15713062219262    -42.09614371441516     29.24880653065829
  O          -8.88690108846443    -43.26680019408170     32.67393686473289
  C         -10.42165027300291    -42.12882835927743     34.24861995156080
  C          -9.00367833411307    -42.62621643083084     33.89058123109703
  C         -10.08440649881636    -45.95333854343842     29.29564019505477
  N         -11.30280095696393    -45.18899980375397     29.58020031804662
  C         -10.93759983573390    -43.83740007915605     29.09519980301502
  C         -11.09990977895312    -42.74837474174006     30.13811851795553
  C         -11.54410014622986    -43.40229997140023     27.75130007753647
  C         -12.44069984114945    -45.91760007707044     28.98559994693874
  C         -12.27300006515712    -46.41109996144532     27.54839999130271
  C         -13.75770004140520    -45.14650004080212     29.14560006925086
  H          -8.52796477189407    -46.48923425530734     30.75074936395844
  H          -9.13248062585804    -44.85683585108120     30.97788228076013
  H          -6.09867913394656    -42.18313807051180     31.68089812440648
  H          -5.95647758146178    -43.96643993466247     31.56617535078865
  H          -7.74688920210534    -43.21597504086142     32.06091448106918
  H         -10.41920019717635    -41.46749991977063     35.12830021862032
  H         -11.08020003019608    -42.95589999037303     34.49520008448159
  H         -10.92559991822917    -41.55789997446406     33.45840007629589
  H          -8.70175723340490    -43.28030464379254     34.73912548232198
  H          -8.28007873479372    -41.77942403098382     33.95125695693035
  H         -10.32060001868323    -47.00059966715228     29.34209982112574
  H          -9.74954792814038    -45.82532766934238     28.24167354471285
  H          -9.86364997659084    -43.84946071578729     28.89074820378490
  H         -12.14419999757518    -42.55260000611538     30.31030001108631
  H         -10.66580000633829    -41.81479999736238     29.74199998407275
  H         -10.59739277554105    -42.99135441921848     31.08037773310881
  H         -12.59539998623326    -43.24230001581545     27.86959998965548
  H         -11.37959996200472    -44.16729998946561     27.02139998159427
  H         -11.07939999041480    -42.49449999645101     27.42749999135523
  H         -12.47040000733506    -46.81720000813244     29.56419999128718
  H         -12.23239998736919    -45.57209999962588     26.88560000068404
  H         -13.10299999368990    -47.03320000238628     27.28580000016722
  H         -11.36629999450470    -46.97350000071289     27.46790000102965
  H         -13.71860000020107    -44.24930000029207     28.56389999148932
  H         -13.90229998943995    -44.89739998485725     30.17609999454946
  H         -14.57059999590111    -45.75509999720015     28.80830000036893
