88
Coordinates from ORCA-job scan_oxh2 E -2536.287306419726
  C          -4.11135771218122    -42.79948355533013     28.93857459582641
  O          -5.45150077469904    -42.78444853205753     29.48025082408708
  H          -3.93309701151726    -43.73335486233069     28.38238624439659
  H          -3.41222612170325    -42.77934740315478     29.79528260415788
  H          -5.98987001183343    -43.27126431259988     28.82676701641683
  H          -3.69177373316666    -41.84496708743022     28.25114207718934
  C          -6.91055868226241    -48.47742627962911     27.55767706794391
  C          -6.42310536569276    -47.07135409791506     27.39169357052677
  N          -5.56094872837280    -46.67671347231571     26.40016570277580
  C          -6.72467667469285    -45.91860816549750     28.08233247886602
  C          -5.38122730984482    -45.34352682109501     26.52497324871962
  N          -6.07407884302921    -44.84101403701541     27.53270494258771
  H          -7.54615876250809    -48.77618703904336     26.70830602081551
  H          -7.51810482145968    -48.55094962664281     28.47057225056698
  H          -7.34032756286157    -45.81230963247085     28.97002723743424
  H          -4.72942867297935    -44.77503510529637     25.85994592342421
  H          -6.08516400924494    -49.20705495794592     27.62033900549504
  C          -3.48816279944239    -50.49572060999428     23.19794584226889
  C          -3.45499019983679    -50.67759705230117     24.70603225035477
  C          -3.87600528306187    -49.44069063036213     25.51505851430946
  O          -4.35981471931741    -48.47237902165338     24.85754680100889
  O          -3.74178689640761    -49.49143625573368     26.75141979262276
  H          -3.30231724556092    -51.44159074076282     22.66600754422858
  H          -2.73439022645100    -49.76488010751579     22.86599426482951
  H          -4.13595269304802    -51.49096797046820     25.01319269667363
  H          -2.45726150667361    -50.98576651979187     25.06029041205445
  H          -4.47030000965922    -50.10495997105318     22.89581303172315
  H          -5.06539806401261    -47.34851906658965     25.73866538808557
  N          -7.64475088099848    -40.22345460789827     31.39770800053914
  H          -7.17522448647395    -40.50493048570653     30.54321834381174
  H          -8.70372387197758    -39.91026192964222     31.33717719554287
  C          -6.95599993597017    -39.64699516193726     32.36700102189408
  O          -7.44199894596472    -39.39700106646066     33.47400102637515
  H          -5.87838499099773    -39.61832109476233     32.20568006296947
  N          -8.93103754156458    -39.06881062545771     29.08565680211955
  H          -8.17820763531105    -39.73267336456926     28.95891182443566
  H          -9.18698892863314    -38.51394090311163     28.25780004091855
  C          -9.62900004154775    -38.97500672160223     30.22999544943252
  O         -10.60900113425424    -38.24200114737352     30.40399995072302
  H          -9.28002121228518    -39.62624415773809     31.03136918817551
  N          -4.39952620057537    -39.49888153840065     28.45351710299204
  H          -5.24996873975598    -39.98788981717635     28.71018480664987
  H          -4.38481200815412    -38.47214600036154     28.42150097617017
  C          -3.26300088396119    -40.14000002945807     28.13900109146288
  O          -2.22300000998906    -39.55499999155059     27.83000001668062
  H          -3.27576227416582    -41.22927886488787     28.17658282807476
  C          -9.54288964693442    -45.93083200516843     31.16802126054885
  S          -7.78941791458690    -45.44388613503632     31.46684682131189
  P          -7.65706604622960    -43.31024818551314     31.32579700907291
  C          -6.09623216713344    -43.04931395457263     32.18225454802251
  O          -7.96803341418683    -42.78085857811600     29.96741476959843
  O          -8.87334070024762    -42.81773512464656     32.34411218790553
  C         -10.39706886977812    -42.12864164498784     34.22611234047610
  C          -8.96224595120090    -42.51772527651945     33.76204488885283
  C         -10.09619432380282    -45.98753130621234     29.71815972510550
  N         -11.30280008144307    -45.18899996464606     29.58020005064984
  C         -10.93759995861285    -43.83740001642173     29.09519996723900
  C         -11.09918612280874    -42.74500766092982     30.12811094538882
  C         -11.54410002659779    -43.40229999232336     27.75130001474027
  C         -12.44069995566224    -45.91760000687999     28.98559995206486
  C         -12.27300001232247    -46.41109999729059     27.54840000659388
  C         -13.75770001013674    -45.14650000805403     29.14560001940759
  H          -9.58565505375342    -46.91551658874354     31.65681439147420
  H         -10.17824306260166    -45.25547727059488     31.75692679923977
  H          -5.72659513901932    -42.03728979666381     31.99389552790479
  H          -5.36519886278276    -43.76313600491213     31.78537985460523
  H          -6.25372196009078    -43.21851667124514     33.25632050805288
  H         -10.41920002322920    -41.46749998888795     35.12830002358445
  H         -11.08019999563176    -42.95589999460984     34.49519998572766
  H         -10.92560000493507    -41.55789997440971     33.45840000725463
  H          -8.60011127843411    -43.38813383639021     34.33416687104388
  H          -8.29239181435762    -41.66697676424435     33.96077050766539
  H         -10.32059996853388    -47.00059996980499     29.34210001135338
  H          -9.31799797595945    -45.63502781274393     29.02268580521734
  H          -9.85315881941543    -43.87131203026120     28.91225520088351
  H         -12.14420000344312    -42.55259999848780     30.31030000080255
  H         -10.66579998440120    -41.81480000354050     29.74200000575180
  H         -10.60382557816989    -42.98361445114590     31.07286615263144
  H         -12.59539999740431    -43.24230000606524     27.86959999695241
  H         -11.37959999029848    -44.16729999795616     27.02139999624099
  H         -11.07939999782115    -42.49450000007469     27.42749999895004
  H         -12.47040000765847    -46.81719999916668     29.56420000787049
  H         -12.23239999712210    -45.57209999951726     26.88559999992362
  H         -13.10299999871958    -47.03320000010843     27.28579999914748
  H         -11.36629999884465    -46.97350000025792     27.46789999993523
  H         -13.71859999959810    -44.24929999997548     28.56389999655112
  H         -13.90229999842764    -44.89739999684277     30.17609999738498
  H         -14.57059999918437    -45.75509999936256     28.80829999904600
