88
Coordinates from ORCA-job scan_oxh2 E -2536.235457815296
  C          -4.23251220181119    -42.72017422087450     29.11502290268259
  O          -5.65879523466091    -42.83430599943872     29.50700981621097
  H          -3.86120169738208    -43.71910462317531     28.83412681162740
  H          -3.69895957926825    -42.41033271759429     30.03129045058806
  H          -6.04170574021289    -43.36066549976778     28.77139371632846
  H          -3.69177374666705    -41.84496710863560     28.25114182700043
  C          -6.68127875137625    -48.52392270326428     26.98733448306838
  C          -6.20722792353837    -47.10417740727451     27.04744329186214
  N          -5.07273085534325    -46.64907402494372     26.42191552486200
  C          -6.72048536972711    -46.00587017748646     27.69796619417883
  C          -4.94772639559892    -45.33661560804945     26.71374528062506
  N          -5.92481860041200    -44.90450797206906     27.49368039340661
  H          -6.63624316163644    -48.91245494069476     25.95858255752487
  H          -7.72474458632036    -48.57890713661579     27.32780213137491
  H          -7.59954158612153    -45.94677673293936     28.32936916302118
  H          -4.12449026888430    -44.72927285288257     26.33482637504255
  H          -6.08516400940168    -49.20705495677603     27.62033900460000
  C          -3.38458605537710    -50.27501923691976     22.97858052879610
  C          -2.97303687779136    -50.49614813939964     24.42637942706540
  C          -3.32725190261804    -49.34900232850242     25.38760991865609
  O          -3.63608208796742    -48.24199225902815     24.85337622869488
  O          -3.27536467427012    -49.57929814500849     26.60826351687961
  H          -3.12684531684236    -51.14068246949972     22.34839878205225
  H          -2.88779013913095    -49.38715125342091     22.56068475955838
  H          -3.42526230593511    -51.41427938927833     24.83618837872418
  H          -1.88185445035344    -50.65130735429786     24.50042765463676
  H          -4.47030000871932    -50.10495997514424     22.89581302760584
  H          -4.45781106690262    -47.23596797391672     25.77974732377260
  N          -7.63693166197246    -40.18497206283574     31.38188239713202
  H          -7.17215821273843    -40.39429299836949     30.50655272877539
  H          -8.70372383852625    -39.91026174241833     31.33717727589105
  C          -6.95599993641116    -39.64699525141552     32.36700104228472
  O          -7.44199895011059    -39.39700104386451     33.47400101733778
  H          -5.87838499235475    -39.61832107361849     32.20568005158349
  N          -8.93425088369520    -39.07803182423210     29.08259634554816
  H          -8.28088454016257    -39.83748004975588     28.92711592589795
  H          -9.18698893100835    -38.51394090795295     28.25780004022746
  C          -9.62900003652121    -38.97500669297843     30.22999546928094
  O         -10.60900112928667    -38.24200114038155     30.40399995378677
  H          -9.28002124942979    -39.62624433196500     31.03136909442459
  N          -4.39870142768318    -39.50233617175027     28.45709678049127
  H          -5.25938720491475    -39.98875840051120     28.68298648720598
  H          -4.38481200087813    -38.47214599933501     28.42150100176729
  C          -3.26300089382772    -40.14000003794890     28.13900093050729
  O          -2.22300002199746    -39.55499999130626     27.82999998544365
  H          -3.27576224659637    -41.22927883527035     28.17658323693533
  C          -9.30052500559113    -45.77045243250512     30.93893705199629
  S          -7.54234716749189    -45.19208950751911     30.93622707139157
  P          -7.52540711853185    -43.05843141615487     31.08258853912640
  C          -6.03713861111833    -42.75021274942722     32.07257217458390
  O          -8.04862634838110    -42.37564248574714     29.85796441741285
  O          -8.80358469221281    -42.82926775114316     32.24374738565716
  C         -10.37781072605379    -42.13521747436161     34.20584361696210
  C          -8.92475536617896    -42.50521032215305     33.66724176704976
  C         -10.06711095408374    -45.96297442112993     29.59934281996991
  N         -11.30280007627697    -45.18899996881298     29.58020003888748
  C         -10.93759996169913    -43.83740001240485     29.09519997543530
  C         -11.10048498229002    -42.74390625739120     30.12749061293028
  C         -11.54410002527457    -43.40229999620740     27.75130001138676
  C         -12.44069995862354    -45.91760000638313     28.98559996586700
  C         -12.27300001221271    -46.41109999747183     27.54840000342137
  C         -13.75770000946249    -45.14650000682087     29.14560001275852
  H          -9.22102674665477    -46.72062344784869     31.48677508051177
  H          -9.86498313274935    -45.07795200022499     31.57733646708046
  H          -5.54591707075816    -41.82967630323931     31.74848522096698
  H          -5.34146070832770    -43.58330308173923     31.91837586019702
  H          -6.32262447788230    -42.68550682910518     33.13001519258749
  H         -10.41920002333988    -41.46749998744323     35.12830002300058
  H         -11.08019999547202    -42.95589999414952     34.49519998671023
  H         -10.92560000541932    -41.55789997453528     33.45840000688838
  H          -8.53128787034190    -43.35281442236198     34.25371751187146
  H          -8.28907905582107    -41.62907562807973     33.86752845782718
  H         -10.32059997028044    -47.00059997117277     29.34210001387831
  H          -9.41349721999810    -45.67089823414963     28.75991836988395
  H          -9.85293588101463    -43.86400404609019     28.91234283129600
  H         -12.14420000332098    -42.55259999868144     30.31030000057774
  H         -10.66579998210473    -41.81479999926893     29.74200000773362
  H         -10.59310820400006    -42.97838009342971     31.06767443559466
  H         -12.59539999720701    -43.24230000441658     27.86959999761391
  H         -11.37959999075907    -44.16729999753175     27.02139999677227
  H         -11.07939999777142    -42.49449999962603     27.42749999912054
  H         -12.47040000754897    -46.81719999931351     29.56420000540795
  H         -12.23239999703384    -45.57209999971163     26.88560000020353
  H         -13.10299999848917    -47.03320000034846     27.28579999957859
  H         -11.36629999882874    -46.97350000026128     27.46790000019076
  H         -13.71859999942190    -44.24929999982353     28.56389999798435
  H         -13.90229999849407    -44.89739999726349     30.17609999836954
  H         -14.57059999922219    -45.75509999933876     28.80829999953562
