88
Coordinates from ORCA-job scan_oxh E -2536.241195158792
  C          -4.39981620683176    -42.83388008824912     28.74699903978076
  O          -5.62791024997974    -42.65134017770834     29.58865378266280
  H          -4.67277472350265    -43.46291258228943     27.88526184286529
  H          -3.69948603112092    -43.39777678001388     29.38185158678761
  H          -6.35197554623933    -42.36378043389652     29.01571288807000
  H          -3.69177388087117    -41.84496688362700     28.25114205705683
  C          -6.29576454302270    -48.26071790574786     28.14610028536318
  C          -5.84956916030529    -47.11255989921374     27.29877877381379
  N          -4.81644858389957    -47.23497537600710     26.40571052493961
  C          -6.26595432314863    -45.80215790307425     27.19110351293784
  C          -4.65272336782407    -46.03348896804582     25.80799529115153
  N          -5.50978777428861    -45.13629208431385     26.25479285033021
  H          -7.37106172113038    -48.19270386658107     28.36461466538549
  H          -5.76116136116893    -48.28285134694579     29.11008525394916
  H          -7.04824946384657    -45.30607786234124     27.76726094295758
  H          -3.89173826108264    -45.86178486526377     25.04493520660472
  H          -6.08516401362269    -49.20705494352357     27.62033901109764
  C          -3.54813865745039    -50.65032605305307     23.15545577741626
  C          -3.74432474348806    -51.43551366665851     24.44758180826253
  C          -4.18031812241264    -50.52161097928495     25.60004093269668
  O          -3.49008403596073    -49.47230886961583     25.75907091011309
  O          -5.17347521501517    -50.85342286809760     26.27477852356670
  H          -3.28508165933859    -51.30334447020478     22.30932704227999
  H          -2.75127501648903    -49.90336860879128     23.28092484186279
  H          -4.49749203773401    -52.22823857242835     24.32294954980052
  H          -2.79929948421080    -51.92782316994980     24.73701209780186
  H          -4.47030000901303    -50.10495997238387     22.89581303088020
  H          -4.27947279532011    -48.12344896471576     26.20477516822466
  N          -7.63716754623203    -40.18573018462661     31.38450980105798
  H          -7.16886427048273    -40.39614477787918     30.51198739967149
  H          -8.70372471917256    -39.91026540398471     31.33717577994635
  C          -6.95599970905910    -39.64699431116549     32.36700086083551
  O          -7.44199893927249    -39.39700113190969     33.47400111838842
  H          -5.87838504578749    -39.61832122464770     32.20568017450959
  N          -8.93259157484604    -39.07477408590635     29.08397104401497
  H          -8.25532861885444    -39.81395644165462     28.93605291282953
  H          -9.18698887243939    -38.51394081681238     28.25780006602186
  C          -9.62900013684245    -38.97500729397859     30.22999503072178
  O         -10.60900123552002    -38.24200125723785     30.40399990669740
  H          -9.28002039153858    -39.62624086200790     31.03137095809598
  N          -4.40036307132618    -39.50147646418019     28.44971802050851
  H          -5.24728181605147    -39.98511260071245     28.72625401716932
  H          -4.38481200015081    -38.47214599949979     28.42150098445930
  C          -3.26300092650461    -40.14000000239608     28.13900101667527
  O          -2.22300000180777    -39.55499999333590     27.83000000821820
  H          -3.27576208150457    -41.22927902536050     28.17658296324467
  C          -9.26288765476939    -45.77157358766096     30.89118280972645
  S          -7.51624706919684    -45.18158332655981     30.78687422094796
  P          -7.51110185610705    -43.06563563147967     31.10485599684581
  C          -6.03658658399106    -42.83721996495808     32.13456773685126
  O          -7.99828481777753    -42.32712682040377     29.88683376995210
  O          -8.79067963069033    -42.88302557178019     32.24768692478695
  C         -10.37748571370710    -42.13579231821033     34.20373463159185
  C          -8.92157630244875    -42.49462231400599     33.66568998868836
  C         -10.06290302820432    -45.96153150470418     29.57468847246675
  N         -11.30280002509108    -45.18899996123286     29.58020007281740
  C         -10.93760002317349    -43.83740000664813     29.09519997054252
  C         -11.10017741100174    -42.74393701427382     30.12774277390911
  C         -11.54410001152956    -43.40230000372031     27.75130000191676
  C         -12.44069998552084    -45.91759997261199     28.98559991470623
  C         -12.27300000339411    -46.41110001535207     27.54840001988948
  C         -13.75770001676254    -45.14650001773590     29.14560001909972
  H          -9.15949168666239    -46.72278789344251     31.43269505016310
  H          -9.80002196601070    -45.08018034171230     31.55402146143273
  H          -5.59207620788807    -41.85161752187842     31.98045757281142
  H          -5.29973371215709    -43.59755207108527     31.85326641600670
  H          -6.33556308996357    -42.97427928286744     33.18186518905093
  H         -10.41920004433341    -41.46749998379129     35.12830004699187
  H         -11.08019999285574    -42.95589999169915     34.49519996586602
  H         -10.92560000927076    -41.55789994862041     33.45840001398273
  H          -8.50226459425307    -43.30846977295513     34.27939516229848
  H          -8.30590946203097    -41.59624445514507     33.81943072244238
  H         -10.32059994057290    -47.00059993927444     29.34210002174784
  H          -9.41372241760418    -45.67415057640933     28.72485066976469
  H          -9.85307645596141    -43.86482777812565     28.91072592111587
  H         -12.14420000402102    -42.55259999620014     30.31029999596662
  H         -10.66580000561970    -41.81480005053920     29.74199998044617
  H         -10.59654275129881    -42.98084726171517     31.06933553359681
  H         -12.59539999414831    -43.24230000149505     27.86960000051697
  H         -11.37959999074950    -44.16729999709230     27.02139999795941
  H         -11.07939999744757    -42.49449999868570     27.42749999882892
  H         -12.47040000269410    -46.81720000469871     29.56420001720448
  H         -12.23240000087776    -45.57209999669267     26.88559999913163
  H         -13.10299999798959    -47.03319999838487     27.28579999869614
  H         -11.36629999973917    -46.97349999960646     27.46789999846911
  H         -13.71859999628930    -44.24930000027226     28.56389999922801
  H         -13.90229999807567    -44.89739999489372     30.17609999871939
  H         -14.57059999673676    -45.75509999887966     28.80830000042245
