70
Coordinates from ORCA-job scan_alkoxide E -2027.322509430595
  C          -4.69100017849123    -42.25599993339031     28.39500004823331
  O          -5.23953541392227    -41.99794287722167     29.59615291682260
  H          -5.26614205240750    -41.87698171614277     27.49210151827765
  H          -4.55237405277159    -43.35520191725965     28.15137618438871
  H          -3.69177087268788    -41.84497005793065     28.25113894730091
  C          -6.71100000630868    -48.52399998478732     27.04599997193577
  C          -6.02664998039562    -47.23319820174228     26.75499105496037
  N          -4.73552273159079    -47.16535975327481     26.27969383045708
  C          -6.48929006922571    -45.94703097579832     26.82580943937672
  C          -4.42107471115535    -45.89768903038914     26.06523386297198
  N          -5.46774177448501    -45.13709159398820     26.38859738990350
  H          -6.97836971448257    -49.03645669791201     26.10861342389066
  H          -7.63677284132214    -48.34087773994995     27.60666356725213
  H          -7.45074881237394    -45.54984587610362     27.13393294857311
  H          -3.46749762525091    -45.55232705643074     25.67307106535669
  H          -6.08516399237337    -49.20705501104822     27.62033901818107
  C          -3.81500001646047    -49.39800001726202     22.38700001777007
  C          -2.47906030472174    -49.22533873207340     23.11165126756639
  C          -2.68116302891924    -48.47061001462058     24.41853767358845
  O          -3.42608700313984    -49.05337021019552     25.28032159068119
  O          -2.19433723820350    -47.34028454264555     24.56088704534688
  H          -3.66036922447121    -49.77535592109088     21.36423948852787
  H          -4.34535335591714    -48.43581622339384     22.30552060469354
  H          -2.03366671345227    -50.21153199503782     23.32240286274487
  H          -1.77016304424115    -48.65917136513593     22.49007083355507
  H          -4.47029998477521    -50.10495998427240     22.89581298315442
  H          -4.08828848929544    -48.04551862763767     25.94877692269155
  C         -10.81619561325824    -43.71207409117022     28.12654131496264
  S         -10.09828971894866    -44.16611238768115     29.74372839065538
  P          -8.21659951882789    -43.17139538958443     29.58622538961751
  C          -6.95204166908217    -44.28734640576707     30.15173248949447
  O          -8.08638153648415    -42.59334170268407     28.21028457473761
  O          -8.24964841103176    -42.09821258923712     30.79629242721273
  C          -9.75195772695425    -40.29564718351912     30.11690575337937
  C          -8.35808610668698    -40.69357461552300     30.55390829761349
  C         -10.27040044151394    -44.58783896439078     26.99847039152877
  N         -10.63685138704516    -44.09870912319400     25.68388183577869
  C          -9.80964621468056    -42.95528594102353     25.26512606836474
  C         -10.63269903270681    -41.80086297688854     24.68542890815560
  C          -8.59559101582060    -43.28460896483674     24.38735803125473
  C         -11.05318673687182    -45.15498291333164     24.75882628423673
  C          -9.97011286411545    -46.18919499269431     24.39908589441487
  C         -11.74019179856460    -44.62112000584629     23.50463592288895
  H         -11.90364455698905    -43.83754645854845     28.23716941644536
  H         -10.61838252744380    -42.64867289726999     27.93983981351955
  H          -6.05812824811864    -43.60759052240821     30.07829392183665
  H          -6.89686699164441    -45.16373105167153     29.49362016453508
  H          -7.15736596744344    -44.59615965852815     31.18627693414344
  H          -9.83664399800120    -39.20172100356331     30.07924999884018
  H         -10.50283416682770    -40.67585322397008     30.82567667608494
  H          -9.97941735080273    -40.69289704502015     29.11597664467021
  H          -8.09883210372364    -40.21883220799516     31.51134961714315
  H          -7.58729856329297    -40.40793025045125     29.82156433075291
  H         -10.66358304058935    -45.60294199406464     27.14994402350366
  H          -9.17608739920324    -44.66050233655463     27.13640217355323
  H          -9.38439061565516    -42.57454858781992     26.20629919360405
  H         -11.02599298764924    -42.01917300523569     23.68186602417375
  H         -10.01307999113087    -40.89319400118743     24.60964200454543
  H         -11.48262198468361    -41.57698500581103     25.34786101349618
  H          -8.87996899228027    -43.64193300819267     23.38636599750311
  H          -7.95350999126128    -44.04514102168335     24.85754199708061
  H          -7.98429898254297    -42.37829700485425     24.25218600587528
  H         -11.82860787817999    -45.71310804626319     25.31469994105450
  H          -9.21773100169125    -45.78603300868874     23.70718502242298
  H         -10.43492901487731    -47.06350200439633     23.91615301540178
  H          -9.44411300346166    -46.54884200126478     25.29732201025601
  H         -11.04179501799137    -44.09492097269724     22.83645899907157
  H         -12.55418601241317    -43.92886601672073     23.76568701557798
  H         -12.17263200234451    -45.45906999887026     22.93723299952693
  H          -5.48846893127977    -44.12088142251275     26.35965179301935
