88
Coordinates from ORCA-job scan2d_oxh E -2536.249871298231
  C          -4.08123164911403    -42.72516330289899     29.03295297179530
  O          -5.43240328860585    -42.75106481322796     29.46086343037712
  H          -3.73822039971042    -43.70095039093095     28.62723117566793
  H          -3.41000894893442    -42.49948441043334     29.89511274814682
  H          -5.88766998531626    -43.75125852194136     28.59348532181614
  H          -3.69177372447373    -41.84496736119737     28.25114082971104
  C          -6.86836033970741    -48.54723702349067     27.21635943071965
  C          -6.44167527161724    -47.11560999326507     27.22993081990307
  N          -5.58917737522656    -46.57062415343986     26.30186379505651
  C          -6.74479765170543    -46.09840726483271     28.10039640667468
  C          -5.39655025608052    -45.28282885856193     26.62073835319817
  N          -6.09335312233956    -44.95939117933420     27.70119301354260
  H          -7.09090007352715    -48.88167868333988     26.19283071046409
  H          -7.77168705063212    -48.67495091309308     27.82811911279697
  H          -7.34711205774544    -46.11967234891925     29.00251624265701
  H          -4.74421896879356    -44.61162752951889     26.06353847527483
  H          -6.08516399572781    -49.20705500505563     27.62033899940286
  C          -3.38933757306519    -50.20795468309527     23.06701938071518
  C          -3.10208226026060    -50.20029991090596     24.55908441608865
  C          -3.66945995904828    -48.99648664520140     25.32387396827264
  O          -4.37566936204211    -48.17881946352242     24.65418649663301
  O          -3.41807369842120    -48.91218781889437     26.53719284171659
  H          -3.04198354623966    -51.13754986929280     22.59031197930613
  H          -2.89907393188349    -49.36196083318539     22.56139016032451
  H          -3.52262511363354    -51.09968377965695     25.04154848451469
  H          -2.01933123375511    -50.24007915427482     24.76540008883148
  H          -4.47029999348284    -50.10496001911746     22.89581297779696
  H          -5.05561025264668    -47.16316277894116     25.56846072306137
  N          -7.64586566582342    -40.22463668733144     31.39887493059127
  H          -7.18081925494205    -40.53442307852459     30.55107727776769
  H          -8.70372231759425    -39.91025474961643     31.33718064896685
  C          -6.95600008454246    -39.64699659299986     32.36700091708031
  O          -7.44199904195952    -39.39700093776928     33.47400097808742
  H          -5.87838499965594    -39.61832099595278     32.20567997279210
  N          -8.93059246140777    -39.06839434201700     29.08601985677715
  H          -8.17304252449600    -39.72768037079033     28.96276900070859
  H          -9.18698906406296    -38.51394108210223     28.25779996131962
  C          -9.62899998420002    -38.97500538768012     30.22999647543780
  O         -10.60900087759966    -38.24200086736375     30.40400004397361
  H          -9.28002263149608    -39.62625123246139     31.03136510875805
  N          -4.40001080144360    -39.49792649736031     28.45364373923580
  H          -5.24622573209653    -39.99328494078262     28.71284752273753
  H          -4.38481198028063    -38.47214599915514     28.42150110597232
  C          -3.26300095609824    -40.14000007329091     28.13900043426306
  O          -2.22300006598476    -39.55499998895137     27.82999985668074
  H          -3.27576223553636    -41.22927866038709     28.17658468952838
  C          -9.54824167531468    -45.94857384693634     31.16865834563430
  S          -7.79680286981910    -45.45743591345747     31.45043989576621
  P          -7.69522117987532    -43.32200442020110     31.34598494949797
  C          -6.12718607235922    -43.06754612708161     32.18698481386813
  O          -8.02218630305655    -42.76323313827434     30.00571382691443
  O          -8.90533226939461    -42.86810494529195     32.38276130083796
  C         -10.40112085653555    -42.12651014540507     34.23122907547952
  C          -8.96892455236826    -42.51354114361086     33.78240884809701
  C         -10.09906451874941    -45.98894123483824     29.71925440293636
  N         -11.30280002579066    -45.18900001331902     29.58020003440191
  C         -10.93759997642964    -43.83740000546822     29.09519999375062
  C         -11.09967292234046    -42.74481606890908     30.12779840624296
  C         -11.54410001098609    -43.40229999245702     27.75130000897571
  C         -12.44069998118819    -45.91759999579602     28.98559995316512
  C         -12.27300000346997    -46.41109999879843     27.54840000536792
  C         -13.75770000235594    -45.14650000144598     29.14560000941711
  H          -9.58607645538407    -46.93927230353346     31.64537287518493
  H         -10.18136740596052    -45.28046131758799     31.76821325120782
  H          -5.80141595128568    -42.02988794418297     32.07142432620694
  H          -5.38456165530603    -43.70947414744536     31.70037863360039
  H          -6.24666127429592    -43.32635574127049     33.24810081416265
  H         -10.41919999011880    -41.46749999755776     35.12829998518457
  H         -11.08020001288904    -42.95590000333434     34.49520002318366
  H         -10.92560000333814    -41.55790002170454     33.45839999363120
  H          -8.59356744635626    -43.35658318565483     34.38659317152797
  H          -8.30576147280806    -41.64912062062474     33.94184081013553
  H         -10.32060003065643    -47.00060002264283     29.34209999411629
  H          -9.31815683646608    -45.63124759553338     29.02933074163908
  H          -9.85285464983055    -43.87033257913949     28.91378321920616
  H         -12.14419999986251    -42.55260000021818     30.31030000114864
  H         -10.66580001228305    -41.81479999242833     29.74199999739507
  H         -10.60568359288418    -42.98389181025133     31.07284740488066
  H         -12.59539999946627    -43.24230000324643     27.86959999845486
  H         -11.37959999730690    -44.16730000022745     27.02139999820459
  H         -11.07939999945097    -42.49450000057403     27.42749999940553
  H         -12.47040000350359    -46.81719999742674     29.56420000807964
  H         -12.23239999930844    -45.57210000004520     26.88560000008110
  H         -13.10299999951803    -47.03320000052435     27.28579999976176
  H         -11.36629999956237    -46.97350000031366     27.46789999980835
  H         -13.71860000005650    -44.24930000047043     28.56389999815763
  H         -13.90229999998498    -44.89739999884187     30.17609999898023
  H         -14.57059999977804    -45.75510000005758     28.80829999955697
