88
Coordinates from ORCA-job scan_oxh2 E -2536.306070342209
  C          -4.06199540754160    -42.84634393669149     28.82869300156297
  O          -5.35948589100184    -42.79802737906435     29.42575788577804
  H          -3.96872938508438    -43.70923656730365     28.15062924080228
  H          -3.30788515788156    -42.96581430762925     29.62970242765197
  H          -5.93637571283993    -43.32881200087321     28.84177755062748
  H          -3.69177385562936    -41.84496709076959     28.25114191567403
  C          -6.93546433569688    -48.50773722312465     27.66589896242868
  C          -6.50103005803392    -47.09236284603870     27.45539711238635
  N          -5.74702555179818    -46.68639445530567     26.38422609070128
  C          -6.75469200116109    -45.94516905168790     28.17274924108512
  C          -5.58003520188501    -45.35030579728556     26.48919288812684
  N          -6.18254062875504    -44.85809228747461     27.55794808671645
  H          -7.66034598301646    -48.81854620874979     26.89621460400696
  H          -7.42447093788042    -48.60518849478085     28.64530570207947
  H          -7.28818628687497    -45.85391103295792     29.11465831785901
  H          -5.00193202032594    -44.77318686671379     25.76605340242632
  H          -6.08516400052299    -49.20705499218192     27.62033900117125
  C          -3.50106844467492    -50.49178639768537     23.23925437011922
  C          -3.52782248125442    -50.63748055105301     24.75121597294192
  C          -3.99220250573857    -49.38400026501355     25.50838133448862
  O          -4.60188599586324    -48.50634095110040     24.82747583281325
  O          -3.77354598984673    -49.33789474710693     26.73279571380007
  H          -3.29999693719066    -51.45003937020260     22.73598141894836
  H          -2.73154903041297    -49.77189507563914     22.91868452793480
  H          -4.22248667928289    -51.44478393898430     25.04516333350233
  H          -2.54636121231801    -50.93333341490089     25.15569616864830
  H          -4.47030000043780    -50.10495999903846     22.89581300043773
  H          -5.27895184549695    -47.35929103396262     25.70301274731320
  N          -7.65024960622213    -40.24934451033627     31.41070020272220
  H          -7.18011227740095    -40.54705094756835     30.56151898602166
  H          -8.70372299324169    -39.91025793953654     31.33717902653699
  C          -6.95600000634180    -39.64699601237696     32.36700099917868
  O          -7.44199900295691    -39.39700099149894     33.47400099672848
  H          -5.87838499925688    -39.61832101151900     32.20568000307176
  N          -8.93162197817789    -39.06988172082793     29.08576228688282
  H          -8.16281694110474    -39.71701022918674     28.96694816672924
  H          -9.18698900194853    -38.51394100190871     28.25779999943264
  C          -9.62900000006587    -38.97500598904205     30.22999600704808
  O         -10.60900099715510    -38.24200099625716     30.40400000187512
  H          -9.28002201441467    -39.62624806710777     31.03136696402207
  N          -4.39978352726445    -39.49730444427946     28.45172871430776
  H          -5.24849120186267    -39.98569693019084     28.71435216986003
  H          -4.38481200401889    -38.47214600015567     28.42150099758343
  C          -3.26300093614016    -40.14000002382092     28.13900100423021
  O          -2.22300001265432    -39.55499999414956     27.82999999482713
  H          -3.27576216434547    -41.22927889848491     28.17658306845453
  C          -9.65445810530366    -46.01914985561807     31.24605535664742
  S          -7.90072427104092    -45.61291154095923     31.62721668258025
  P          -7.73620923668144    -43.48833917554960     31.46348638944624
  C          -6.16908178887907    -43.21143606022824     32.29086848050044
  O          -7.95174364775997    -42.97386884821957     30.07980608616537
  O          -8.94565139866530    -42.96192860501430     32.43744481814712
  C         -10.40825063323089    -42.12402440755117     34.23683088241765
  C          -8.98171545943633    -42.50854861113265     33.80746556131889
  C         -10.11551737805636    -46.00157953659044     29.76593410225934
  N         -11.30280005808610    -45.18899998874851     29.58020005557020
  C         -10.93759995546187    -43.83740001597248     29.09519996988217
  C         -11.09866033730960    -42.74503259504116     30.12855225503107
  C         -11.54410002908249    -43.40229999144006     27.75130001636747
  C         -12.44069995833538    -45.91760000058109     28.98559994529251
  C         -12.27300001189603    -46.41109999759274     27.54840000711636
  C         -13.75770001003259    -45.14650000808012     29.14560001979663
  H          -9.76856342052976    -47.01381633830164     31.70221017215151
  H         -10.28609088186187    -45.32817500396973     31.82073777433712
  H          -6.02440758312284    -42.13509202873664     32.43762990080875
  H          -5.38233302834571    -43.58009006198352     31.62169231706410
  H          -6.16344757911628    -43.72967280399163     33.25881604431164
  H         -10.41920000268170    -41.46749999658471     35.12830000185042
  H         -11.08020000298597    -42.95589999986649     34.49520000457007
  H         -10.92559999979138    -41.55790000175229     33.45840000029153
  H          -8.57899380796614    -43.29861195681691     34.46270060198426
  H          -8.33415973314685    -41.62167204450679     33.88901619230004
  H         -10.32060000134081    -47.00060000210295     29.34209999839925
  H          -9.28956673080517    -45.61615170434717     29.14954373646329
  H          -9.85287227345211    -43.87454911745888     28.91167435034558
  H         -12.14420000226857    -42.55259999898107     30.31030000141104
  H         -10.66579999341091    -41.81479999136868     29.74200000672161
  H         -10.60655512460520    -42.98594986064790     31.07412220074141
  H         -12.59539999707881    -43.24230000523501     27.86959999708815
  H         -11.37959999099874    -44.16729999847239     27.02139999634344
  H         -11.07939999775332    -42.49450000010125     27.42749999886824
  H         -12.47040000781123    -46.81719999888952     29.56420000864442
  H         -12.23239999726434    -45.57209999956652     26.88559999994148
  H         -13.10299999858329    -47.03320000035798     27.28579999922988
  H         -11.36629999879049    -46.97350000033332     27.46789999988188
  H         -13.71859999965295    -44.24930000001325     28.56389999628411
  H         -13.90229999838761    -44.89739999674490     30.17609999721456
  H         -14.57059999917486    -45.75509999936595     28.80829999896219
