70
Coordinates from ORCA-job scan_alkoxide E -2027.332600306431
  C          -4.69100051572582    -42.25599992643961     28.39499931793865
  O          -5.47821832201799    -41.81392967430793     29.42163604775660
  H          -5.15502520720167    -42.12305202561437     27.38558653962228
  H          -4.47585020865674    -43.35753194256424     28.44582735843924
  H          -3.69177065226488    -41.84497008719596     28.25113953477252
  C          -6.71100019838684    -48.52399973148007     27.04599982892892
  C          -6.21877426776880    -47.12313637076706     26.97143802517131
  N          -5.03490701721356    -46.75969710723796     26.37353898710088
  C          -6.87777083654844    -45.98798066183445     27.35695357579407
  C          -4.99392101370910    -45.43928316477114     26.38076761633360
  N          -6.09685880054818    -44.93416615654340     26.95985096237157
  H          -6.79799946030970    -48.95168891007744     26.03426194483442
  H          -7.71313115256254    -48.54065109699355     27.49661056490489
  H          -7.81041728252942    -45.85010107108936     27.89659330532826
  H          -4.18886599383960    -44.82660965793399     25.97710632394568
  H          -6.08516380262003    -49.20705523369421     27.62033916660243
  C          -3.81500002942024    -49.39800000057507     22.38700006964567
  C          -2.54872410189011    -49.05905165236674     23.17617812116681
  C          -2.86844000345989    -48.10229271656314     24.29688147340753
  O          -3.68920279606988    -48.61202334754790     25.18660281187801
  O          -2.45847208120600    -46.95578370610255     24.34068307446719
  H          -3.54482625058200    -49.85530424099431     21.42299627495343
  H          -4.39585785221003    -48.49006829382163     22.16199184513806
  H          -2.10066949383766    -49.97338182570664     23.59665035934462
  H          -1.80143665892062    -48.57906004182465     22.52981878135489
  H          -4.47029997535924    -50.10495999327694     22.89581295627017
  H          -4.11587597873172    -47.84224311287245     25.72980854173190
  C         -10.32378612965929    -43.71775683678113     28.16422974243163
  S          -9.30037094004859    -44.18902450073685     29.60798629680177
  P          -7.37166882904330    -42.93412480409012     29.42446392902410
  C          -6.43853628480450    -44.17387815117308     30.36363759936686
  O          -7.46337429797798    -42.71594560218499     27.92604185941765
  O          -7.81066758685768    -41.82641818228825     30.51529679359288
  C          -9.60921885558844    -40.27026942741065     30.16188774899412
  C          -8.11052241523960    -40.48461774327856     30.15082949957624
  C         -10.14363177122955    -44.64415162453104     26.95030872762917
  N         -10.63685136252262    -44.09870893829217     25.68388221254918
  C          -9.80964610371453    -42.95528635135500     25.26512541388977
  C         -10.63269927394822    -41.80086284228106     24.68542905987419
  C          -8.59559100660550    -43.28460872185128     24.38735832751421
  C         -11.05318714944442    -45.15498298150187     24.75882635577186
  C          -9.97011273078455    -46.18919498863414     24.39908591165334
  C         -11.74019154192690    -44.62111994776674     23.50463584796657
  H         -11.37298195981058    -43.71531109034265     28.49873113030261
  H         -10.06764716658081    -42.68205159395507     27.90563185105270
  H          -5.50937968841787    -43.71364438774853     30.71270114121254
  H          -6.23441830653776    -45.04898168326196     29.73434439500209
  H          -7.06309056205756    -44.48706903147152     31.21201809055569
  H          -9.83664399039351    -39.20172103097987     30.07924996600329
  H         -10.03642270513801    -40.63825740465416     31.10665105592017
  H         -10.09912269799245    -40.79987258561734     29.33104111061058
  H          -7.61699167862322    -39.84000749227793     30.89447549333311
  H          -7.66226244104265    -40.25669955504804     29.17174258544882
  H         -10.66358294068334    -45.60294203287536     27.14994401405816
  H          -9.06884994379383    -44.87456980633226     26.87976162444467
  H          -9.37571621205622    -42.56976308773027     26.19707353218175
  H         -11.02599278699727    -42.01917300368916     23.68186592713869
  H         -10.01307998407702    -40.89319401559646     24.60964196160748
  H         -11.48262199093742    -41.57698496499112     25.34786121218027
  H          -8.87996900800297    -43.64193306090765     23.38636598201659
  H          -7.95351000045723    -44.04514106288236     24.85754195971797
  H          -7.98429896602594    -42.37829703127264     24.25218598348796
  H         -11.82860778115083    -45.71310801330903     25.31469992922147
  H          -9.21773101774252    -45.78603302393358     23.70718498871690
  H         -10.43492902914877    -47.06350200377169     23.91615301812217
  H          -9.44411301370298    -46.54884199650032     25.29732200008970
  H         -11.04179505998568    -44.09492097018786     22.83645901527134
  H         -12.55418606460272    -43.92886603888378     23.76568703446275
  H         -12.17263202336765    -45.45907000587346     22.93723300452702
  H          -6.35294185390389    -43.95125330971754     27.14495372437825
