70
Coordinates from ORCA-job scan_alkoxide E -2027.373475997766
  C          -4.69100044275661    -42.25599989168261     28.39499934797987
  O          -5.26034681659118    -41.81345635690313     29.61026807710556
  H          -5.29830603166315    -41.95943714326445     27.52455501666083
  H          -4.57232151747870    -43.35349615184884     28.38028138386456
  H          -3.69177072321134    -41.84497011210465     28.25113951982584
  C          -6.71100028605868    -48.52399969985029     27.04599978471269
  C          -6.40018059087105    -47.06987750953163     27.09117105221326
  N          -5.33939137081090    -46.52841638320766     26.40342793323411
  C          -7.14278798161025    -46.04898106517601     27.62974918137980
  C          -5.44545228492057    -45.21911056229582     26.50812885325092
  N          -6.52733914291342    -44.88641429964154     27.23806581230371
  H          -6.67040853386468    -48.87249713348873     26.00216390221455
  H          -7.74129792892625    -48.68600266233266     27.39533021311562
  H          -8.04873835144982    -46.04939859504746     28.23221876058590
  H          -4.76665453155950    -44.48803235207103     26.07021549190650
  H          -6.08516373946226    -49.20705527144823     27.62033920381048
  C          -3.81500003244894    -49.39799999498294     22.38700008055985
  C          -2.65385468481949    -48.88731201130737     23.24272567240425
  C          -3.11471190302686    -47.85414646893554     24.24137266495282
  O          -3.96330762592425    -48.33481333790977     25.12252899100074
  O          -2.77213828081178    -46.68632544955428     24.21135161183821
  H          -3.42168882339151    -49.91738970469900     21.49998896217108
  H          -4.43202839965076    -48.56210368565571     22.02214586640595
  H          -2.17860370105883    -49.72045102618850     23.78460780918538
  H          -1.88892822402875    -48.41457260542205     22.61184533906222
  H          -4.47029997292960    -50.10495999704643     22.89581295208882
  H          -4.38965944449485    -47.56496839141735     25.65097502658425
  C         -11.11009094581699    -43.75225817852024     28.12728798865189
  S         -10.75603213681763    -44.34910468426861     29.82248404988798
  P          -6.92012135544987    -42.48035719803693     29.81124517907629
  C          -6.73430638764126    -44.01422706223741     30.68941910106719
  O          -7.57145357564614    -42.53556739763541     28.46463933356090
  O          -7.53362333210538    -41.50882657945282     30.89913241169146
  C          -9.41338197472793    -40.21416767451348     30.04054313338375
  C          -8.01125613357800    -40.18073996077849     30.60487415513628
  C         -10.37248362973395    -44.54479794565213     27.04446481123276
  N         -10.63685071195546    -44.09870910948057     25.68388209726873
  C          -9.80964639108710    -42.95528632376835     25.26512520071033
  C         -10.63269928353218    -41.80086269193750     24.68542938695049
  C          -8.59559121809241    -43.28460873636897     24.38735863592387
  C         -11.05318787590484    -45.15498280519853     24.75882656504938
  C          -9.97011261812219    -46.18919501253467     24.39908585693457
  C         -11.74019134336939    -44.62111998580610     23.50463577014936
  H         -12.19312593997551    -43.80710680314404     27.90870265024038
  H         -10.84013114582903    -42.68402158653486     28.02792306298578
  H          -6.29347229382791    -43.82594332144680     31.67618633766832
  H          -6.09288311941850    -44.68994122615950     30.10770291687292
  H          -7.74168616528268    -44.44805116274114     30.78126954585376
  H          -9.83664399231583    -39.20172102972312     30.07924996915733
  H         -10.04917734054261    -40.88719330642169     30.63503953883905
  H          -9.41897094963303    -40.56297082477819     28.99812140506080
  H          -7.97971231087942    -39.65625805549161     31.56880283249548
  H          -7.30095223238856    -39.68510343571858     29.92491279622346
  H         -10.66358302736809    -45.60294202932295     27.14994405008089
  H          -9.29402585022780    -44.50156833341999     27.27992150130160
  H          -9.39295623349455    -42.56936367212521     26.21037991711135
  H         -11.02599278843546    -42.01917302097513     23.68186584084793
  H         -10.01307996984219    -40.89319407387076     24.60964184212616
  H         -11.48262196718016    -41.57698499410372     25.34786116005695
  H          -8.87996898137079    -43.64193306834306     23.38636595077536
  H          -7.95350982721830    -44.04514101660378     24.85754185833891
  H          -7.98429890642563    -42.37829703463591     24.25218592783019
  H         -11.82860765742753    -45.71310808005675     25.31469988961601
  H          -9.21773101563328    -45.78603302882942     23.70718500495002
  H         -10.43492903968583    -47.06350200332405     23.91615302264723
  H          -9.44411301386426    -46.54884199882012     25.29732200588944
  H         -11.04179507596808    -44.09492093412997     22.83645901940761
  H         -12.55418607384142    -43.92886605420622     23.76568705014042
  H         -12.17263202449171    -45.45907000084327     22.93723300617025
  H          -6.83857039068196    -43.94049212720383     27.49813760284650
