70
Coordinates from ORCA-job scan_alkoxide E -2027.335741296968
  C          -4.69100043201609    -42.25599991465840     28.39499932961009
  O          -5.48771483518094    -41.81651724267169     29.42424828685001
  H          -5.16073392702139    -42.12085088345830     27.39285105216716
  H          -4.47849636749680    -43.35459297477950     28.45037739604430
  H          -3.69177072364214    -41.84497009761865     28.25113952753409
  C          -6.71100025456292    -48.52399969329898     27.04599979643399
  C          -6.22190363942223    -47.12185180539002     26.97146693114870
  N          -5.04458301001094    -46.75643071796417     26.36181468353139
  C          -6.87882584447902    -45.98760013739123     27.36392753806121
  C          -5.00574724994507    -45.43598667974820     26.36766300914726
  N          -6.10422271022190    -44.93281687054535     26.95700101999546
  H          -6.79754824159625    -48.95107283322304     26.03400654295238
  H          -7.71317724241242    -48.54246690688024     27.49655453013674
  H          -7.80418225194415    -45.84542176081693     27.91585590132079
  H          -4.20564924116979    -44.82231091954366     25.95573306383842
  H          -6.08516375605778    -49.20705526575987     27.62033919587002
  C          -3.81500002948337    -49.39799999848190     22.38700007182001
  C          -2.54924205298987    -49.05726923400885     23.17621771856004
  C          -2.87095128024993    -48.09923237596004     24.29523828543498
  O          -3.69276671624288    -48.60847049417086     25.18403826154475
  O          -2.46340581658028    -46.95173140753005     24.33710973691223
  H          -3.54421250565206    -49.85585483891462     21.42340974384548
  H          -4.39638826964068    -48.49065975253500     22.16092633728683
  H          -2.10077044619567    -49.97065567853696     23.59826117128437
  H          -1.80198965550317    -48.57767099903187     22.52952101648909
  H          -4.47029997485871    -50.10495999467997     22.89581295650446
  H          -4.12398005768341    -47.83798585281076     25.72371481113125
  C         -10.30496725930589    -43.71719586866171     28.16508420732750
  S          -9.27034829357663    -44.18136840522121     29.60303438730023
  P          -7.29438360682376    -42.88700660283025     29.42357691504627
  C          -6.41332780428021    -44.16064179505833     30.37248563036112
  O          -7.43329928038233    -42.69610105683875     27.92328327868285
  O          -7.78300657223923    -41.80300366992284     30.51920576588512
  C          -9.60059895404150    -40.26752856017993     30.17117394091620
  C          -8.10013225405828    -40.46496490170739     30.15563039884492
  C         -10.13947190398665    -44.64583222768209     26.94968052445696
  N         -10.63685112588595    -44.09870897098131     25.68388224805203
  C          -9.80964618586452    -42.95528637787812     25.26512532971519
  C         -10.63269931173225    -41.80086280466509     24.68542907788599
  C          -8.59559103096240    -43.28460870026800     24.38735836054301
  C         -11.05318742788771    -45.15498292979628     24.75882639104749
  C          -9.97011268716991    -46.18919499042589     24.39908589508058
  C         -11.74019146846634    -44.62111995715659     23.50463581816206
  H         -11.35390018588812    -43.70759258031916     28.50165254613505
  H         -10.04706947557250    -42.68352283851096     27.89897356671558
  H          -5.49749278651160    -43.71882558412780     30.77778067540379
  H          -6.17896360714066    -45.01469976563101     29.72467025899925
  H          -7.07325931190412    -44.50263321226284     31.18108495819887
  H          -9.83664399427428    -39.20172102763162     30.07924996660302
  H         -10.02112402791838    -40.63146636770586     31.12046622216387
  H         -10.08713208130088    -40.80953326858248     29.34643550301196
  H          -7.61175274034281    -39.81206764253663     30.89572261305810
  H          -7.66253919001032    -40.22996422063125     29.17308992884320
  H         -10.66358296744603    -45.60294203925500     27.14994400983697
  H          -9.06693710405903    -44.88511957691014     26.87191198367050
  H          -9.37569933701939    -42.56960315755426     26.19679531294276
  H         -11.02599276444002    -42.01917300544050     23.68186591911801
  H         -10.01307998145231    -40.89319402258004     24.60964195830377
  H         -11.48262198373857    -41.57698496882323     25.34786121071607
  H          -8.87996900256453    -43.64193306063569     23.38636598894088
  H          -7.95350998954545    -44.04514107229302     24.85754196196454
  H          -7.98429895526688    -42.37829703224324     24.25218598215359
  H         -11.82860773354667    -45.71310803365629     25.31469991963393
  H          -9.21773101813320    -45.78603302728192     23.70718499222857
  H         -10.43492903361001    -47.06350200594581     23.91615302366793
  H          -9.44411301217315    -46.54884199949847     25.29732200288776
  H         -11.04179506551596    -44.09492095891139     22.83645901750637
  H         -12.55418606678842    -43.92886604578591     23.76568704117070
  H         -12.17263202291408    -45.45907000434718     22.93723300700806
  H          -6.36302815170129    -43.95030142890390     27.14379843994532
