88
Coordinates from ORCA-job scan2d_oxh E -2536.265630996882
  C          -4.16042954486557    -42.72795028323119     29.06332626983992
  O          -5.55195534950602    -42.77701315579914     29.49476204662267
  H          -3.83821556511460    -43.72225548454617     28.71158034344564
  H          -3.56392634050159    -42.48580412732831     29.96278676259217
  H          -5.99085071684382    -43.31911735629099     28.77817713754267
  H          -3.69177522722531    -41.84496640470144     28.25114078658383
  C          -6.80567906427681    -48.48989680994511     27.19001482384323
  C          -6.29514415224214    -47.08257652991675     27.18698327354262
  N          -5.22185408159448    -46.66150845145020     26.44240981572133
  C          -6.73089639114908    -45.95881736402213     27.85105915235421
  C          -5.05473361114291    -45.34290965640636     26.67960446481587
  N          -5.95104079109108    -44.87461111154138     27.53241316210856
  H          -7.02659060148815    -48.83022748635185     26.16622979427516
  H          -7.73543401191303    -48.54272327074382     27.77336709300947
  H          -7.53752268882298    -45.87623612711113     28.57115862153172
  H          -4.26038629356070    -44.76069411111833     26.21048335718636
  H          -6.08516399247868    -49.20705504496401     27.62033900968252
  C          -3.43162655656028    -50.40919190917393     23.09640991446211
  C          -3.22331838190785    -50.63404771213439     24.58548440360055
  C          -3.58067905020235    -49.43678165906342     25.48032388954844
  O          -3.92514077423191    -48.37124170536176     24.88739755631343
  O          -3.51050986325377    -49.59808782328841     26.71173603500353
  H          -3.21677810249559    -51.31847123936043     22.51362389780464
  H          -2.78191044459049    -49.60337854954510     22.72314149398641
  H          -3.82286560405816    -51.48806963145170     24.94395468188143
  H          -2.17575867586013    -50.90332607778255     24.80595328580572
  H          -4.47029998478645    -50.10496003758764     22.89581296644919
  H          -4.63512226876759    -47.29862580181521     25.82021487029478
  N          -7.64132394491438    -40.20221942179834     31.38969794379305
  H          -7.17413246476329    -40.46448007277420     30.52837708104857
  H          -8.70372236855725    -39.91025514517478     31.33718058958547
  C          -6.95599993635467    -39.64699657655989     32.36700088709784
  O          -7.44199907558305    -39.39700092551946     33.47400098238194
  H          -5.87838501442257    -39.61832100221149     32.20568000642226
  N          -8.93028776747718    -39.07069846584253     29.08519675801402
  H          -8.23304189359357    -39.79060355691716     28.93958367862135
  H          -9.18698905207664    -38.51394107472872     28.25779995768672
  C          -9.62900000910317    -38.97500540605390     30.22999649505791
  O         -10.60900087573042    -38.24200087460982     30.40400003289588
  H          -9.28002250138388    -39.62625099304031     31.03136508626552
  N          -4.39893683941819    -39.50026152150207     28.45636546104900
  H          -5.25461643890618    -39.98852150783958     28.69729028883199
  H          -4.38481194505372    -38.47214598901930     28.42150113185379
  C          -3.26300134667479    -40.13999992566046     28.13900007649942
  O          -2.22300001640496    -39.55500002921753     27.82999985513982
  H          -3.27576072547046    -41.22927953199129     28.17658516880146
  C          -9.40972934680523    -45.84859462308731     31.05272129331223
  S          -7.64821865930346    -45.30848039206453     31.19074996267056
  P          -7.59891873705799    -43.17125113071220     31.21072192713599
  C          -6.06515453913544    -42.88560037366749     32.11919425437220
  O          -8.01097768635571    -42.55567017386834     29.91623782039040
  O          -8.84399711960202    -42.82715273244752     32.30255692292559
  C         -10.38847079604050    -42.13109957793512     34.21727156694459
  C          -8.94422113713630    -42.50325555632816     33.72052880423084
  C         -10.08000398693759    -45.97429077039554     29.65675442253186
  N         -11.30279980571615    -45.18900003304728     29.58019982544191
  C         -10.93760010592955    -43.83739995081135     29.09520011517536
  C         -11.09999750787435    -42.74421723092730     30.12775504176226
  C         -11.54409994133551    -43.40230003280853     27.75129995203842
  C         -12.44070009043207    -45.91760000710466     28.98560016082078
  C         -12.27299998543692    -46.41109999755435     27.54839997378974
  C         -13.75769998240518    -45.14649997941356     29.14559993557882
  H          -9.38480461456079    -46.81722761307466     31.57310042104363
  H         -10.00903810638569    -45.16826514809386     31.67254346563707
  H          -5.63586234859196    -41.92187153349303     31.83458112930229
  H          -5.35062892204305    -43.67062998849291     31.84600563510438
  H          -6.28065870733637    -42.92116504137891     33.19532782477995
  H         -10.41919998163562    -41.46750000425119     35.12829997451671
  H         -11.08020000627771    -42.95590000354994     34.49520001431248
  H         -10.92560000483708    -41.55790002131183     33.45839998906506
  H          -8.55707450328961    -43.35440478470436     34.30530744865975
  H          -8.29797620268906    -41.63216665370307     33.90906319325293
  H         -10.32060000739191    -47.00060002022391     29.34210001223716
  H          -9.36553563185170    -45.64891516048885     28.88303309873024
  H          -9.85289515866486    -43.86715880858825     28.91269015497010
  H         -12.14419999450580    -42.55260000226160     30.31029999499396
  H         -10.66580000872159    -41.81479999145401     29.74199999707728
  H         -10.60045542141842    -42.98056242548807     31.07113731195625
  H         -12.59540000239500    -43.24229998257527     27.86960000872440
  H         -11.37960001825915    -44.16730000179066     27.02140000802113
  H         -11.07940000316365    -42.49449999791318     27.42750000221333
  H         -12.47039998658029    -46.81720000066602     29.56419997340510
  H         -12.23240000137538    -45.57210000259948     26.88560000135658
  H         -13.10299999977312    -47.03320000257570     27.28580000394378
  H         -11.36630000022806    -46.97350000072059     27.46790000085804
  H         -13.71859999940922    -44.24929999800980     28.56390001257693
  H         -13.90230000240608    -44.89740000758385     30.17610000794254
  H         -14.57060000047879    -45.75510000073263     28.80830000350662
