88
Coordinates from ORCA-job scan2d_oxh E -2536.224666901821
  C          -4.17677537045989    -42.65154632129154     29.13863598541106
  O          -5.56679619903450    -42.76647485128069     29.45703865582908
  H          -3.70954219231848    -43.64125028180487     28.94720916809175
  H          -3.64259528903462    -42.22337856056027     30.01865969166450
  H          -5.86803714248377    -43.79461914782443     28.55583212642088
  H          -3.69177533775012    -41.84496630000343     28.25114104443279
  C          -6.63516346711345    -48.55880227548321     26.91816876661114
  C          -6.19757736032097    -47.13657513159144     27.04644140420338
  N          -5.09482536206246    -46.62407896925459     26.40714253146717
  C          -6.69360462011953    -46.11394985553825     27.81429129780859
  C          -4.94820245400177    -45.34909893653709     26.79091870045466
  N          -5.90331649010348    -45.00457674321754     27.64384977889019
  H          -6.45700620583141    -48.93454405494558     25.90079047547619
  H          -7.70623086715347    -48.64957132853858     27.14403223192807
  H          -7.53664122933399    -46.10234859837788     28.49503951357671
  H          -4.14667278955582    -44.69784248534518     26.44506802680022
  H          -6.08516399365732    -49.20705505888381     27.62033901082679
  C          -3.37565131284882    -50.21119240285457     22.94666512120085
  C          -2.91259698982826    -50.34659568026225     24.38838906916723
  C          -3.31201376360154    -49.18882190018213     25.31295238268834
  O          -3.79872553595372    -48.15871200846535     24.75003789466258
  O          -3.13460341486887    -49.33029142720479     26.53350986055466
  H          -3.08852880926300    -51.08876295760544     22.34665160223658
  H          -2.94108847868941    -49.31749015651673     22.47512185910215
  H          -3.30164040655415    -51.27111416363085     24.84637506229546
  H          -1.81331214624614    -50.43586205188981     24.44235403451697
  H          -4.47029998657365    -50.10496003640548     22.89581296743663
  H          -4.47635698484483    -47.20352124679548     25.73267590370954
  N          -7.64128951934585    -40.19857084837104     31.38915909022986
  H          -7.18089037765486    -40.47118989964100     30.52776868694998
  H          -8.70372242759974    -39.91025553435757     31.33718039121623
  C          -6.95599992354034    -39.64699647475095     32.36700088502828
  O          -7.44199907112253    -39.39700094704844     33.47400099217003
  H          -5.87838501683885    -39.61832100611377     32.20568001635228
  N          -8.93067589640549    -39.07147326707583     29.08499827874843
  H          -8.23868336001421    -39.79704249849961     28.94085741426422
  H          -9.18698904624440    -38.51394106206556     28.25779996193776
  C          -9.62900000859518    -38.97500546921034     30.22999644327409
  O         -10.60900089102750    -38.24200089250249     30.40400002684534
  H          -9.28002243233223    -39.62625061722370     31.03136530926984
  N          -4.40026033917218    -39.49961244761903     28.45307872208953
  H          -5.25213287839139    -39.99222370730464     28.69926949711602
  H          -4.38481194616405    -38.47214599140431     28.42150110724758
  C          -3.26300141983694    -40.13999988572919     28.13900021070280
  O          -2.22299998533960    -39.55500003704881     27.82999988965326
  H          -3.27576059322781    -41.22927964697203     28.17658478814102
  C          -9.36934811120332    -45.83574808660734     31.01223645240158
  S          -7.61532028154108    -45.26668777407955     31.07799054785709
  P          -7.61044802585887    -43.13294272504907     31.18307128263438
  C          -6.07692886164541    -42.83674184070358     32.09459098281201
  O          -8.06755183972598    -42.47066487091852     29.92765615105719
  O          -8.85255061014278    -42.87060467617767     32.31314041583072
  C         -10.38817903491296    -42.13077705010468     34.21704627745726
  C          -8.94352901829755    -42.49570739119831     33.71725598934483
  C         -10.07607568263666    -45.97124190238616     29.63696393297701
  N         -11.30279978902920    -45.18899998374649     29.58019986906064
  C         -10.93760011799871    -43.83739998176731     29.09520007331945
  C         -11.10064540931972    -42.74392254542665     30.12712167353589
  C         -11.54409992996814    -43.40230000152975     27.75129997520131
  C         -12.44070010900515    -45.91760007575076     28.98560014603317
  C         -12.27299998827532    -46.41109996535301     27.54839996591456
  C         -13.75769996856317    -45.14649995582521     29.14559993582457
  H          -9.31467252708293    -46.80529320453920     31.52839449754831
  H          -9.95623169127462    -45.16374397941701     31.65274616966527
  H          -5.61381637269188    -41.90580677127556     31.76027430157651
  H          -5.38320825817712    -43.65642513457764     31.87672904170270
  H          -6.30229567266178    -42.80680948944232     33.16946791294750
  H         -10.41919998207133    -41.46750000547289     35.12829997525343
  H         -11.08020000435313    -42.95590000316363     34.49520001014182
  H         -10.92560000490910    -41.55790001848902     33.45839998930366
  H          -8.53573360099905    -43.31741769984099     34.32974757018324
  H          -8.31267909704863    -41.60680577070588     33.87235803327713
  H         -10.32060000416448    -47.00060002420469     29.34210000212586
  H          -9.37907801104766    -45.65244795043828     28.84295122363458
  H          -9.85273709205324    -43.86516423726391     28.91332051348356
  H         -12.14419999406822    -42.55260000066973     30.31029999514012
  H         -10.66580000975637    -41.81479999710857     29.74199999509188
  H         -10.60042625710457    -42.98018105903724     31.07014556389179
  H         -12.59540000576721    -43.24229999536418     27.86960000389866
  H         -11.37960001959001    -44.16730000742776     27.02140000378898
  H         -11.07940000500739    -42.49450000176147     27.42749999981688
  H         -12.47039998018897    -46.81719998765366     29.56419997866312
  H         -12.23240000024528    -45.57210000715101     26.88560000312606
  H         -13.10299999879403    -47.03320000817193     27.28580000723635
  H         -11.36629999914837    -46.97350000330271     27.46790000145389
  H         -13.71860000192105    -44.24930000048219     28.56390001237865
  H         -13.90230000632860    -44.89740001246628     30.17610000940088
  H         -14.57060000099632    -45.75510000341688     28.80830000329082
