70
Coordinates from ORCA-job scan_alkoxide E -2027.329618617514
  C          -4.69100027106300    -42.25599987873962     28.39499991402600
  O          -5.38683169777808    -41.84843243433671     29.47483709452290
  H          -5.18778493502851    -42.06401651243203     27.39583854848935
  H          -4.48908319047499    -43.36977303713260     28.35942975054709
  H          -3.69177080540985    -41.84497009826503     28.25113905709043
  C          -6.71100004124244    -48.52399993579603     27.04599993929688
  C          -6.23837710604168    -47.11677400199180     26.99280000902902
  N          -5.05557623538329    -46.73106768585251     26.40775247026843
  C          -6.91497873990907    -45.99557520046415     27.38847910109033
  C          -5.03044659681496    -45.41086604669898     26.43607312722009
  N          -6.14225093318566    -44.92719560426762     27.01575101908928
  H          -6.77880794870937    -48.94088563891873     26.02831315909982
  H          -7.71901987139759    -48.55982010222368     27.48224215359745
  H          -7.86206642744097    -45.88627905895657     27.90788686349191
  H          -4.23027940063240    -44.78159691171139     26.04867097490439
  H          -6.08516395519599    -49.20705506507415     27.62033905363382
  C          -3.81500001708533    -49.39800001794536     22.38700002274043
  C          -2.56328731760267    -49.03257529932541     23.18771358716025
  C          -2.90375480340806    -48.06372759011114     24.29209955382556
  O          -3.71029538077266    -48.57654058547725     25.19341823172207
  O          -2.51784005027920    -46.90856898135661     24.31604614254260
  H          -3.52551863392393    -49.86607658032217     21.43385470506634
  H          -4.40260409497762    -48.50015158278711     22.14001702844842
  H          -2.10893239348115    -49.93548911156000     23.62553601821047
  H          -1.81489907905627    -48.55241392057798     22.54276667280687
  H          -4.47029998397701    -50.10495998332048     22.89581298034909
  H          -4.13319429371379    -47.81209770305937     25.74292965184349
  C         -10.50445665798658    -43.72147261016579     28.16020724050558
  S          -9.61743924499827    -44.23827268280563     29.67788721970945
  P          -7.75638620299456    -43.14244092848640     29.50228572432427
  C          -6.62283775440964    -44.21779844704740     30.38113909708685
  O          -7.64498511900214    -42.82787005469334     28.03376580686919
  O          -7.97050409002646    -41.93993864432225     30.54436484940299
  C          -9.67812597346875    -40.27844050307323     30.20248829053371
  C          -8.19928336314129    -40.59219511278669     30.14399186136556
  C         -10.18631002080222    -44.62517644151682     26.96471315064933
  N         -10.63685175013051    -44.09870886267056     25.68388211550277
  C          -9.80964606846955    -42.95528620303676     25.26512565321853
  C         -10.63269916331180    -41.80086290479132     24.68542925281834
  C          -8.59559094043290    -43.28460881108494     24.38735820663447
  C         -11.05318650909805    -45.15498312076837     24.75882616382058
  C          -9.97011285032948    -46.18919494787924     24.39908590950824
  C         -11.74019181131026    -44.62111993718968     23.50463595866343
  H         -11.57591404219148    -43.75327779933559     28.40809649041763
  H         -10.24576768613869    -42.67466614677122     27.95422473144639
  H          -5.71130944230119    -43.59765426515430     30.41885367182284
  H          -6.47983462804013    -45.16519605013629     29.84852856221294
  H          -7.03931526259692    -44.40373291087856     31.38132247760990
  H          -9.83664398899465    -39.20172101461367     30.07925000001181
  H         -10.09258952157510    -40.57616066205073     31.17708705390354
  H         -10.23356388902837    -40.80593688851489     29.41245434327169
  H          -7.63111616453137    -39.96620813297565     30.84760967710412
  H          -7.77092050762708    -40.43259101142774     29.14381321089223
  H         -10.66358297240358    -45.60294203342218     27.14994399696443
  H          -9.09858540415703    -44.79625049820290     26.95826187332741
  H          -9.37900944660767    -42.57104760598109     26.20113629520606
  H         -11.02599294322796    -42.01917299777455     23.68186595447573
  H         -10.01307996970404    -40.89319401603596     24.60964192891787
  H         -11.48262194803588    -41.57698501734051     25.34786095738223
  H          -8.87996900794968    -43.64193304249998     23.38636597468770
  H          -7.95351001424132    -44.04514105084148     24.85754196594936
  H          -7.98429899144462    -42.37829702200749     24.25218599378505
  H         -11.82860790252772    -45.71310798741123     25.31469995977272
  H          -9.21773101570742    -45.78603301594701     23.70718500773134
  H         -10.43492902085467    -47.06350201062877     23.91615302188618
  H          -9.44411300762956    -46.54884200181079     25.29732200711565
  H         -11.04179502127860    -44.09492099922070     22.83645899318546
  H         -12.55418602165209    -43.92886601677492     23.76568701157719
  H         -12.17263200729183    -45.45907000710826     22.93723299925384
  H          -6.40338411000372    -43.95111281238059     27.21649475115003
