70
Coordinates from ORCA-job scan_alkoxide E -2027.329056124629
  C          -4.69100033198537    -42.25600000438691     28.39499973004774
  O          -5.41680053259262    -41.82321844097810     29.44659815396844
  H          -5.17098140988719    -42.10197062131227     27.38265683799118
  H          -4.47967663732611    -43.36850556894305     28.40305838476453
  H          -3.69177076887507    -41.84497001200065     28.25113920307297
  C          -6.71100005325072    -48.52399989485988     27.04599991540896
  C          -6.22899231091475    -47.11949758831199     26.98767894650345
  N          -5.04026721198711    -46.74431217394429     26.40757489061166
  C          -6.89944131958804    -45.99169503671181     27.37524910692451
  C          -5.00602764081676    -45.42405545474016     26.43022416705940
  N          -6.11777355104365    -44.93014923697265     27.00123769210467
  H          -6.78436757437969    -48.94361898634369     26.02982649783547
  H          -7.71745759022256    -48.55262840585644     27.48622817172588
  H          -7.84592011381889    -45.87209467748194     27.89353499954528
  H          -4.19934010187795    -44.80233482642316     26.04411401974635
  H          -6.08516393830941    -49.20705509384065     27.62033907546732
  C          -3.81500002634692    -49.39800001195969     22.38700004430349
  C          -2.55769631973985    -49.04322671705640     23.18367612933404
  C          -2.88877160135343    -48.08067522627979     24.29639898703745
  O          -3.70234000535500    -48.59247856070066     25.19196121517527
  O          -2.49191293713156    -46.92944264227208     24.33027252066485
  H          -3.53284415857182    -49.86188381046122     21.42961702020917
  H          -4.39994886870952    -48.49612837670752     22.14859475513506
  H          -2.10521441212827    -49.95106397306019     23.61329002798344
  H          -1.80993673694335    -48.56210707843569     22.53871530065998
  H          -4.47029997752315    -50.10495998668134     22.89581296684014
  H          -4.12184386569210    -47.82685492624329     25.74324197688983
  C         -10.46037021049114    -43.72238835515996     28.16207561140965
  S          -9.53963787110377    -44.23162233032447     29.66197605554573
  P          -7.67928599009610    -43.10389226298211     29.47875984082129
  C          -6.57920247929831    -44.20817571715749     30.37261803552282
  O          -7.60464222980385    -42.80811250737085     28.00310636299255
  O          -7.93359393745278    -41.91744784164842     30.53145417424867
  C          -9.65978033872505    -40.27818645065161     30.17942468434971
  C          -8.17483520748894    -40.56824360784456     30.14434016191986
  C         -10.17527839165346    -44.63061532585316     26.96045310601636
  N         -10.63685180167435    -44.09870895023496     25.68388201192755
  C          -9.80964603935320    -42.95528614770810     25.26512576650741
  C         -10.63269915704381    -41.80086293249354     24.68542912200350
  C          -8.59559094643852    -43.28460880229098     24.38735819153135
  C         -11.05318639975666    -45.15498310950360     24.75882620468456
  C          -9.97011287659293    -46.18919494740336     24.39908593593735
  C         -11.74019181610311    -44.62111991908832     23.50463595678936
  H         -11.52660796659769    -43.74697018361381     28.43274060230846
  H         -10.20190409408679    -42.67777713933451     27.94566599549851
  H          -5.65193688982416    -43.62724002137220     30.47376529971793
  H          -6.43423005913611    -45.14681188251149     29.82485452477932
  H          -7.03914896100318    -44.41512603009964     31.34958493052434
  H          -9.83664399346385    -39.20172101259301     30.07924998560368
  H         -10.08717514110600    -40.60616637470736     31.13865630617412
  H         -10.19120364658020    -40.79658100771454     29.36716614633296
  H          -7.63119902550621    -39.94305260699160     30.86804926146711
  H          -7.72675596215184    -40.38944375032436     29.15609972863841
  H         -10.66358295287942    -45.60294200143902     27.14994402844794
  H          -9.09017822734921    -44.81674718784465     26.93746544156631
  H          -9.37804766532013    -42.57064612198755     26.20007228355297
  H         -11.02599291520005    -42.01917299815161     23.68186596804239
  H         -10.01307997211304    -40.89319400998247     24.60964193920658
  H         -11.48262197179963    -41.57698499801796     25.34786105578511
  H          -8.87996901082246    -43.64193305612471     23.38636596750508
  H          -7.95351001690365    -44.04514105121694     24.85754195986286
  H          -7.98429899330492    -42.37829702607485     24.25218599231196
  H         -11.82860792891286    -45.71310797481538     25.31469996334510
  H          -9.21773101371857    -45.78603301544040     23.70718500029373
  H         -10.43492901676964    -47.06350200885247     23.91615300987195
  H          -9.44411301001316    -46.54884199845180     25.29732200176275
  H         -11.04179502424487    -44.09492100146729     22.83645899810880
  H         -12.55418603404590    -43.92886602467968     23.76568700870411
  H         -12.17263201255454    -45.45907001023938     22.93723299662580
  H          -6.37481169780351    -43.95130645959207     27.19514722790707
