70
Coordinates from ORCA-job scan_alkoxide E -2027.322163798349
  C          -4.69100012490280    -42.25599997344241     28.39500003428222
  O          -5.30995238390329    -41.92565475518806     29.54221194894827
  H          -5.23457921262163    -41.96335981864556     27.44266157584843
  H          -4.52309329352274    -43.37066899729873     28.24878963479340
  H          -3.69177091948766    -41.84497002867801     28.25113896040450
  C          -6.71100002295112    -48.52399997071499     27.04599996907231
  C          -6.02174493418291    -47.23279711416156     26.76607415222955
  N          -4.72668188105766    -47.16770624424485     26.30116738211133
  C          -6.47845643449490    -45.94506839840953     26.84604670641366
  C          -4.40482954544307    -45.89970479817293     26.10117578926820
  N          -5.44989070074318    -45.13594160975084     26.42328318056932
  H          -6.97266104744646    -49.03262411417807     26.10498421423690
  H          -7.63924241829675    -48.34344095410724     27.60326890546447
  H          -7.44546952314819    -45.55124949045667     27.14062725356743
  H          -3.44704657889004    -45.55503341550156     25.71879771620045
  H          -6.08516397845105    -49.20705502075141     27.62033902232211
  C          -3.81500001694003    -49.39800001622501     22.38700001876167
  C          -2.48087754981062    -49.22254649191671     23.11415893488855
  C          -2.68441600502496    -48.46900035319779     24.42138036055791
  O          -3.43359025410507    -49.05133785936095     25.28045845236071
  O          -2.19399571877324    -47.34112235205482     24.56785275062819
  H          -3.65752351000268    -49.77682392964555     21.36524738462798
  H          -4.34655346328847    -48.43672765899350     22.30282018171052
  H          -2.03369599120911    -50.20785529153785     23.32541651303601
  H          -1.77186697834428    -48.65499088254840     22.49399503470462
  H          -4.47029998389146    -50.10495998444061     22.89581298347316
  H          -4.08299008720848    -48.05103349452702     25.95790852421767
  C         -10.72057881386880    -43.70463629996650     28.13650612107883
  S          -9.93319784134344    -44.15639440614156     29.72116146363376
  P          -8.05680869153603    -43.13171350533111     29.52797384843037
  C          -6.82393845629931    -44.25984407091222     30.14419979884601
  O          -7.96314299889165    -42.60273028849252     28.12973375186017
  O          -8.11932384364432    -42.03928973424576     30.71658675879697
  C          -9.70845937060507    -40.29235640920505     30.10663986739483
  C          -8.27728641946675    -40.64431008212056     30.45686440223771
  C         -10.24472295449941    -44.59775453475334     26.98916935074849
  N         -10.63685138489539    -44.09870911069276     25.68388182034230
  C          -9.80964618964205    -42.95528597754237     25.26512604622309
  C         -10.63269905735328    -41.80086294771163     24.68542895578167
  C          -8.59559103748143    -43.28460893323348     24.38735803231791
  C         -11.05318682483837    -45.15498290738824     24.75882632154714
  C          -9.97011282944214    -46.18919499580951     24.39908587114057
  C         -11.74019175675745    -44.62112001054575     23.50463591193160
  H         -11.80436542001463    -43.80467045118130     28.29729744865056
  H         -10.50947852809626    -42.64727866508683     27.93033071881097
  H          -5.92848075348130    -43.58984437662974     30.09617301901828
  H          -6.75800989028389    -45.14659053277459     29.50139556703192
  H          -7.07416049418873    -44.54989850058388     31.17441767714867
  H          -9.83664400021806    -39.20172100003023     30.07924999861937
  H         -10.40042410121933    -40.69899958260133     30.85948410879625
  H          -9.98770695715562    -40.69713271373077     29.12171534292533
  H          -7.96933705678210    -40.14330570405195     31.38623791898887
  H          -7.56293502020068    -40.35484572488983     29.67173591358429
  H         -10.66358303767275    -45.60294199327559     27.14994402469877
  H          -9.14910397674586    -44.70007683188288     27.09586834593952
  H          -9.38163375224624    -42.57475224433245     26.20471213191852
  H         -11.02599298163418    -42.01917300679276     23.68186601200950
  H         -10.01307998744595    -40.89319400941766     24.60964199055947
  H         -11.48262197740810    -41.57698501057141     25.34786100398169
  H          -8.87996898975988    -43.64193302083171     23.38636600219818
  H          -7.95350998335493    -44.04514102462355     24.85754200076747
  H          -7.98429897897068    -42.37829700769971     24.25218600594811
  H         -11.82860785774360    -45.71310805023482     25.31469993431787
  H          -9.21773100679222    -45.78603301015097     23.70718502648443
  H         -10.43492901949125    -47.06350200516528     23.91615302112313
  H          -9.44411300605255    -46.54884200095421     25.29732201215257
  H         -11.04179502439563    -44.09492097005289     22.83645900050578
  H         -12.55418601739354    -43.92886601490109     23.76568701917843
  H         -12.17263200463231    -45.45906999812137     22.93723299985471
  H          -5.45915426463687    -44.11897910809200     26.40706618045341
