88
Coordinates from ORCA-job scan2d_oxh E -2536.271141432243
  C          -4.07526937687570    -42.77211263292003     28.97454843888773
  O          -5.42395018917178    -42.77952469985276     29.45906045685783
  H          -3.81983390134511    -43.72349445887602     28.47133033295102
  H          -3.38741487410013    -42.66475873593564     29.83861496008497
  H          -5.92735721284855    -43.53728921349055     28.67651686548283
  H          -3.69177369547153    -41.84496739667542     28.25114073571445
  C          -6.93356704905278    -48.51602684931643     27.49454419796701
  C          -6.47379923331145    -47.09951610174665     27.36902374003055
  N          -5.60500043295121    -46.66906509479841     26.39697310319749
  C          -6.77707907423067    -45.97996359021892     28.10556013768113
  C          -5.41560966402262    -45.34750543498672     26.57134844347710
  N          -6.11933031564980    -44.88938201210953     27.59493907547764
  H          -7.48895962402223    -48.83527664889019     26.59849403990852
  H          -7.60199249083473    -48.61333510858618     28.36099452575810
  H          -7.38522370325841    -45.89574685924560     29.00010516882936
  H          -4.75976938344721    -44.75154408478781     25.93636547095567
  H          -6.08516399530752    -49.20705500424402     27.62033899910900
  C          -3.45349605759034    -50.40993762548519     23.18121261540836
  C          -3.37102392401742    -50.56368724198290     24.69069305171792
  C          -3.85871360929418    -49.34997564615281     25.49502723953746
  O          -4.39807541422810    -48.41051003668618     24.83594839661229
  O          -3.71549511038787    -49.38525035976443     26.73017722161012
  H          -3.20392704024210    -51.34675655398107     22.65968292614217
  H          -2.76776098041386    -49.62743479250115     22.82102700115352
  H          -3.97972484561159    -51.42094873592097     25.02795343224300
  H          -2.34368934209088    -50.78978589662054     25.02176539478292
  H          -4.47029999273541    -50.10496002094662     22.89581297588516
  H          -5.09165883444446    -47.32644798795087     25.72195831753491
  N          -7.64575096960910    -40.22700397709707     31.39908423472258
  H          -7.17905366300986    -40.52772092278377     30.54935247511882
  H          -8.70372225360408    -39.91025443455788     31.33718081131030
  C          -6.95600009307240    -39.64699664841454     32.36700090595350
  O          -7.44199904521268    -39.39700093289675     33.47400097626941
  H          -5.87838499903403    -39.61832099597347     32.20567996997873
  N          -8.93156663185632    -39.06934535624976     29.08555440852385
  H          -8.17150081493758    -39.72573960273917     28.96294656110769
  H          -9.18698907038300    -38.51394108994421     28.25779995756341
  C          -9.62899998352984    -38.97500532938297     30.22999652063400
  O         -10.60900086556494    -38.24200085428024     30.40400004845013
  H          -9.28002269205840    -39.62625154523349     31.03136492571228
  N          -4.39964085999125    -39.49804676523246     28.45381154310662
  H          -5.24866688823229    -39.98885269383314     28.71166518373988
  H          -4.38481197906703    -38.47214599913359     28.42150111559110
  C          -3.26300094648209    -40.14000008201190     28.13900038953526
  O          -2.22300007316910    -39.55499998741855     27.82999984332083
  H          -3.27576226419505    -41.22927862748174     28.17658482605339
  C          -9.56635668714535    -45.95326265855926     31.18487808591858
  S          -7.81514783405803    -45.47480445253709     31.49795961662655
  P          -7.68364124564089    -43.34347878975058     31.35002640119884
  C          -6.11443777814111    -43.08369106571193     32.18940857589426
  O          -7.99303877617954    -42.81140027621642     29.99218973917998
  O          -8.89223652926084    -42.84715638805406     32.36969823375668
  C         -10.39969859616909    -42.12746765675228     34.22959087717368
  C          -8.96703426151692    -42.51852707265673     33.77757149175124
  C         -10.10158554684300    -45.99116209476259     29.72854349234378
  N         -11.30280002790548    -45.18900001496794     29.58020003541013
  C         -10.93759997451020    -43.83740000547811     29.09519999443306
  C         -11.09935215696741    -42.74497382065577     30.12798737586600
  C         -11.54410001145140    -43.40229999179594     27.75130000930243
  C         -12.44069997996114    -45.91759999567059     28.98559994986953
  C         -12.27300000347971    -46.41109999854562     27.54840000577664
  C         -13.75770000211122    -45.14650000079669     29.14560001003191
  H          -9.61868021943890    -46.94261819573611     31.66315596638702
  H         -10.20384736722607    -45.28029820448278     31.77423980243265
  H          -5.78375067780775    -42.05086323929103     32.04648251652971
  H          -5.37231998659585    -43.74801110066259     31.73338871588285
  H          -6.24079204557015    -43.30952131860816     33.25721982023592
  H         -10.41919998893514    -41.46749999741656     35.12829998362379
  H         -11.08020001370003    -42.95590000360017     34.49520002520342
  H         -10.92560000352169    -41.55790002371874     33.45839999301843
  H          -8.60194435643113    -43.37615506621800     34.36716926957349
  H          -8.29749030216460    -41.66294481779115     33.95621420341340
  H         -10.32060003329301    -47.00060002459853     29.34209999352675
  H          -9.31563178627848    -45.63603761889522     29.04440028487889
  H          -9.85288609874875    -43.87123791775507     28.91329096613084
  H         -12.14419999978967    -42.55260000028508     30.31030000126418
  H         -10.66580001387781    -41.81479999202301     29.74199999678434
  H         -10.60554626043575    -42.98404516168571     31.07330106326655
  H         -12.59539999951241    -43.24230000347352     27.86959999837304
  H         -11.37959999730722    -44.16730000031416     27.02139999815013
  H         -11.07939999946241    -42.49450000067311     27.42749999942739
  H         -12.47040000374836    -46.81719999716801     29.56420000869193
  H         -12.23239999935477    -45.57210000007942     26.88560000007597
  H         -13.10299999952172    -47.03320000061462     27.28579999973476
  H         -11.36629999956225    -46.97350000034822     27.46789999979576
  H         -13.71860000012681    -44.24930000066893     28.56389999798646
  H         -13.90230000011824    -44.89739999900829     30.17609999892999
  H         -14.57059999986205    -45.75510000015871     28.80829999950868
