88
Coordinates from ORCA-job scan2d_oxh E -2536.245115281898
  C          -4.16118890872490    -42.69003800242128     29.10122333545470
  O          -5.55793737669171    -42.78249994404480     29.46866305635904
  H          -3.75747521301249    -43.68339746237569     28.82937012147277
  H          -3.60196938046044    -42.35258528178373     29.99809154372685
  H          -5.92480182739391    -43.58407597206190     28.65448473128813
  H          -3.69177522944641    -41.84496640005297     28.25114079501494
  C          -6.69829767003196    -48.53083835892907     26.99967791216334
  C          -6.23854141372612    -47.10905702249107     27.07898543875362
  N          -5.13208785534777    -46.63250989083892     26.42009868124628
  C          -6.73348300271173    -46.03497253827967     27.77933238145652
  C          -4.99624689656078    -45.33052240973505     26.73382455102926
  N          -5.95087999298357    -44.92906715067731     27.55872972272413
  H          -6.65116991772484    -48.90107183543714     25.96486879092468
  H          -7.73798779637983    -48.60734256358004     27.34647825226269
  H          -7.58018628377401    -45.98561825554943     28.45425383823452
  H          -4.19130809317180    -44.70644813394360     26.34543381886806
  H          -6.08516399262496    -49.20705504393194     27.62033900998421
  C          -3.38543366002809    -50.26874785039680     22.98617863638120
  C          -2.98596009585647    -50.44603178698076     24.44222552618304
  C          -3.36805230896269    -49.28200618630409     25.36868493935588
  O          -3.80367574745716    -48.23182321597811     24.80642324129250
  O          -3.22515714205400    -49.44518334804606     26.59247798174130
  H          -3.11993140775683    -51.15116785982723     22.38316154771226
  H          -2.88952089138687    -49.39166927522360     22.54469310288049
  H          -3.43452018377076    -51.35773086492218     24.87092767742996
  H          -1.89497521006222    -50.58777733582895     24.53702391124079
  H          -4.47029998575211    -50.10496003482941     22.89581296904679
  H          -4.51673485922997    -47.22634596047953     25.77392836262953
  N          -7.64128811399321    -40.20051591161871     31.38879482806112
  H          -7.17889809448217    -40.46580669474254     30.52618071062643
  H          -8.70372242386817    -39.91025547287636     31.33718042100958
  C          -6.95599993415528    -39.64699651016193     32.36700090153873
  O          -7.44199907128930    -39.39700092995992     33.47400098375228
  H          -5.87838501417404    -39.61832100673723     32.20568001115357
  N          -8.93120206273722    -39.07189693821664     29.08472664612253
  H          -8.23719981982548    -39.79532545376000     28.94010572963520
  H          -9.18698904612764    -38.51394106387366     28.25779996182439
  C          -9.62900001019571    -38.97500546754613     30.22999644542917
  O         -10.60900088907389    -38.24200088926570     30.40400002820436
  H          -9.28002243976795    -39.62625066300285     31.03136528571715
  N          -4.39892741826107    -39.49984611963038     28.45737075862107
  H          -5.25512539371200    -39.98948736184993     28.69367986419034
  H          -4.38481194524984    -38.47214598904075     28.42150113015500
  C          -3.26300134529549    -40.13999992515895     28.13900008003470
  O          -2.22300001574391    -39.55500002927489     27.82999985715579
  H          -3.27576072400192    -41.22927953480345     28.17658515549011
  C          -9.38023197157721    -45.84067858067546     31.02073858287599
  S          -7.62304218933451    -45.28515270229204     31.10916455769215
  P          -7.60526508161172    -43.15092384306762     31.18991640450217
  C          -6.06932888999556    -42.86254932520305     32.09828448946872
  O          -8.04109945473418    -42.50349804600007     29.91868940693817
  O          -8.84729045424320    -42.85490389526429     32.30643742638143
  C         -10.38761457163640    -42.13143383142829     34.21664334000369
  C          -8.94372658561769    -42.50450502175173     33.71834128019868
  C         -10.07812398478438    -45.97238330730431     29.64059176105263
  N         -11.30279980615800    -45.18900003082929     29.58019982594082
  C         -10.93760010629546    -43.83739995108778     29.09520011412483
  C         -11.10037791229973    -42.74406558570690     30.12740441399896
  C         -11.54409994121148    -43.40230003281034     27.75129995202624
  C         -12.44070009043013    -45.91760000796634     28.98560016178450
  C         -12.27299998555536    -46.41109999733303     27.54839997367951
  C         -13.75769998241516    -45.14649997941429     29.14559993567430
  H          -9.33800156890024    -46.81013683597611     31.53823493117335
  H          -9.96851576488133    -45.16443649081746     31.65548815100855
  H          -5.62551437886875    -41.90882793292027     31.80277434056869
  H          -5.36202405195105    -43.66055722511246     31.84581834338675
  H          -6.28889937836957    -42.87835744037439     33.17448671125378
  H         -10.41919998367349    -41.46750000334476     35.12829997665818
  H         -11.08020000547112    -42.95590000292025     34.49520001227059
  H         -10.92560000507305    -41.55790001859879     33.45839998974037
  H          -8.55089131654420    -43.34354861613595     34.31662684254280
  H          -8.30105198069387    -41.62765890717140     33.89123778143747
  H         -10.32060000455318    -47.00060001808014     29.34210001292410
  H          -9.38016128712084    -45.66220800013085     28.84563709714049
  H          -9.85281244286231    -43.86646819596980     28.91287931945373
  H         -12.14419999453242    -42.55260000217788     30.31029999494805
  H         -10.66580001396452    -41.81479999962750     29.74199999234245
  H         -10.60035363843518    -42.98060849572318     31.07046127809983
  H         -12.59540000240326    -43.24229998263159     27.86960000870760
  H         -11.37960001821024    -44.16730000177240     27.02140000800754
  H         -11.07940000316378    -42.49449999791425     27.42750000220953
  H         -12.47039998649035    -46.81720000071058     29.56419997325803
  H         -12.23240000134714    -45.57210000261232     26.88560000136077
  H         -13.10299999976766    -47.03320000258591     27.28580000395096
  H         -11.36630000021903    -46.97350000072857     27.46790000086262
  H         -13.71859999941647    -44.24929999800933     28.56390001257431
  H         -13.90230000240386    -44.89740000759273     30.17610000793988
  H         -14.57060000047806    -45.75510000073498     28.80830000350364
