88
Coordinates from ORCA-job scan_oxh E -2536.294907802308
  C          -4.11307367334421    -42.82069705294217     28.87527148729233
  O          -5.39745882664653    -42.72523662514755     29.52002339827936
  H          -4.06867948210762    -43.71016402884211     28.22835059573665
  H          -3.35448009854439    -42.94101145868023     29.67009653097655
  H          -6.05122137547090    -43.09878905165775     28.90785941385096
  H          -3.69177365386054    -41.84496709726361     28.25114199945417
  C          -6.91756781662756    -48.48730322880216     27.69790893596357
  C          -6.47639682749993    -47.08421304847170     27.41954852558656
  N          -5.69936632524089    -46.73802289052046     26.34439408379598
  C          -6.75006511571338    -45.89549067530877     28.06109747102396
  C          -5.54175270866580    -45.39575798174702     26.37390685567167
  N          -6.16947213856199    -44.84329344319482     27.39685290007127
  H          -7.69451796588456    -48.80584636735768     26.98360200733002
  H          -7.34943947212535    -48.54906155145888     28.70686583516989
  H          -7.30576504969939    -45.75868116612530     28.98479763334035
  H          -4.95078256070475    -44.86056332239682     25.62895892177793
  H          -6.08516401098820    -49.20705495765687     27.62033900463503
  C          -3.53031260803439    -50.57548123188492     23.21586869039226
  C          -3.56936715584321    -50.77358853979940     24.72150262729040
  C          -3.99300694358100    -49.52742774497722     25.51375260550964
  O          -4.53232535152902    -48.59471070867168     24.84843054014805
  O          -3.81048915020524    -49.53786484719534     26.74516383132952
  H          -3.39811431008356    -51.52557700039341     22.67583738414184
  H          -2.71230454958750    -49.89956143602355     22.92062559812397
  H          -4.29549290140371    -51.56298921687304     24.98622071621780
  H          -2.60236075490516    -51.11932688016354     25.12165726407213
  H          -4.47030000727797    -50.10495997654571     22.89581302592378
  H          -5.22398852586460    -47.44047241126636     25.70181980835027
  N          -7.64582950374806    -40.22961102157188     31.39928962788151
  H          -7.17870659438623    -40.53319019457878     30.55079199766780
  H          -8.70372395020810    -39.91026143506414     31.33717772538860
  C          -6.95599978997303    -39.64699514219727     32.36700078812992
  O          -7.44199899271144    -39.39700105625105     33.47400108799559
  H          -5.87838504711263    -39.61832115318548     32.20568012202158
  N          -8.93069173921748    -39.06845893999464     29.08603043318464
  H          -8.17060656030006    -39.72487099754804     28.96329072327251
  H          -9.18698894861710    -38.51394092479030     28.25780002268850
  C          -9.62900009158531    -38.97500653777444     30.22999560370859
  O         -10.60900109267675    -38.24200109568300     30.40399996335335
  H          -9.28002117227704    -39.62624484341478     31.03136862656456
  N          -4.40000429119121    -39.49841167195737     28.45199858352036
  H          -5.24534240241866    -39.98807579705670     28.72371896696372
  H          -4.38481200525069    -38.47214600149673     28.42150098564695
  C          -3.26300089281400    -40.14000002071748     28.13900105418509
  O          -2.22300000733052    -39.55499998820736     27.83000000520174
  H          -3.27576232718755    -41.22927887169580     28.17658293856503
  C          -9.57287867474360    -45.96561491117144     31.18869115033262
  S          -7.82158492660283    -45.49404247518022     31.51540564369562
  P          -7.68105067473816    -43.36615100969433     31.38566816331799
  C          -6.12603446548520    -43.10535751487537     32.24794992746378
  O          -7.93093283586513    -42.82781762854430     30.01590687353244
  O          -8.90342342647675    -42.86354581103124     32.37743228691208
  C         -10.40165207480180    -42.12690798462883     34.23089927120497
  C          -8.97177567501336    -42.51968857431358     33.78295680239300
  C         -10.10169976664370    -45.99213094865615     29.73048358255067
  N         -11.30280001480863    -45.18899997841292     29.58020007352636
  C         -10.93760002105323    -43.83740001284187     29.09519996767897
  C         -11.09887623421320    -42.74514924540106     30.12836438967564
  C         -11.54410001265383    -43.40229999670579     27.75130000848141
  C         -12.44069999310843    -45.91759998143602     28.98559991237690
  C         -12.27300000296478    -46.41110000944750     27.54840001682410
  C         -13.75770001291174    -45.14650001233584     29.14560001615249
  H          -9.62385692547957    -46.96006425979901     31.65643875420522
  H         -10.21192524817270    -45.29866767181424     31.78328351213414
  H          -5.80516565137256    -42.06719712638760     32.12043137014683
  H          -5.37068790402524    -43.75820001763908     31.79722236699984
  H          -6.25783317202361    -43.34260784602215     33.31238982103986
  H         -10.41920002292163    -41.46749998919248     35.12830002152655
  H         -11.08020000169764    -42.95589999599918     34.49519998691100
  H         -10.92560001354597    -41.55789997291949     33.45840000506125
  H          -8.60579459737579    -43.37205222591340     34.37928747758453
  H          -8.30108948800291    -41.66308704249585     33.95029033682673
  H         -10.32059997709875    -47.00059997280198     29.34210000615380
  H          -9.30864719180339    -45.63980808257376     29.05218283879482
  H          -9.85301250728571    -43.87356396686149     28.91072100696216
  H         -12.14420000267809    -42.55259999721294     30.31029999699706
  H         -10.66579995923191    -41.81479998334073     29.74200002482611
  H         -10.60609692668523    -42.98634466286661     31.07361712312207
  H         -12.59539999446838    -43.24230000329944     27.86959999973485
  H         -11.37959999147528    -44.16729999854304     27.02139999714936
  H         -11.07939999774173    -42.49449999934014     27.42749999810689
  H         -12.47040000105162    -46.81720000131452     29.56420001760140
  H         -12.23240000067881    -45.57209999769466     26.88559999958269
  H         -13.10299999788232    -47.03319999935690     27.28579999962626
  H         -11.36629999959707    -46.97350000003107     27.46789999870935
  H         -13.71859999690215    -44.24930000055461     28.56389999963804
  H         -13.90229999884699    -44.89739999588497     30.17609999935072
  H         -14.57059999680995    -45.75509999938909     28.80830000052147
