88
Coordinates from ORCA-job scan_oxh2 E -2536.223094014008
  C          -4.27464680372959    -42.69443179149631     29.15855433339976
  O          -5.71708241347842    -42.86181724489054     29.50271212689113
  H          -3.84219627593352    -43.69204869059653     28.97835140099017
  H          -3.80731369506081    -42.29092142145694     30.07407735937260
  H          -6.04717447857934    -43.43754703053280     28.77365119518038
  H          -3.69177371840244    -41.84496710360798     28.25114198742389
  C          -6.54893536481681    -48.55150669391781     26.85974444972649
  C          -6.11487572932501    -47.12411498727150     26.98392142117242
  N          -4.91588398425215    -46.64993151143405     26.51117507869469
  C          -6.72345604395128    -46.03877108909710     27.56977558870012
  C          -4.84708011415965    -45.33849321991725     26.82430432519017
  N          -5.92193188396098    -44.92625401830391     27.47635147296118
  H          -6.28343335412013    -48.95423811366729     25.87105326261529
  H          -7.63860038049700    -48.62343130595101     26.98171909115754
  H          -7.68675348659853    -46.01276100955167     28.06950909793438
  H          -3.99335801172003    -44.71534015510741     26.55495891693779
  H          -6.08516400865644    -49.20705495701738     27.62033900532115
  C          -3.38120453284720    -50.26254362491122     22.95240137069520
  C          -2.92772391465061    -50.50305722391422     24.38466758204022
  C          -3.20427354974963    -49.35896534099546     25.37383665153242
  O          -3.55815671086128    -48.24898699345815     24.87563243077481
  O          -3.05186346481877    -49.59647958526220     26.58488209733217
  H          -3.13071279917717    -51.11670100904213     22.30398711402458
  H          -2.90261366798692    -49.36469962023987     22.53417653323537
  H          -3.39251915266066    -51.41071315312823     24.80405985952296
  H          -1.84022891765590    -50.69339159869240     24.41872034058694
  H          -4.47030000833676    -50.10495997703212     22.89581302641682
  H          -4.24571252538192    -47.22879613728595     25.92305130798229
  N          -7.63433375404257    -40.16267062562191     31.37412800530328
  H          -7.17115576643585    -40.35273765517020     30.49414813303293
  H          -8.70372381376579    -39.91026156600061     31.33717735852430
  C          -6.95599993530576    -39.64699532082275     32.36700104708768
  O          -7.44199895283893    -39.39700103126390     33.47400101272306
  H          -5.87838499372942    -39.61832105689520     32.20568004394934
  N          -8.93324338136538    -39.07955499875064     29.08221896332114
  H          -8.31426268067038    -39.86799148619498     28.92193130135334
  H          -9.18698893390529    -38.51394091238835     28.25780003889764
  C          -9.62900003603314    -38.97500666140858     30.22999549440522
  O         -10.60900112266494    -38.24200113277868     30.40399995636374
  H          -9.28002127920819    -39.62624450439912     31.03136899093883
  N          -4.39856396043331    -39.50335039391970     28.45684789079831
  H          -5.26232010886893    -39.98895233284154     28.67442873210132
  H          -4.38481200709560    -38.47214599961178     28.42150098147299
  C          -3.26300087897639    -40.14000003599767     28.13900103388502
  O          -2.22300001442240    -39.55499999057633     27.83000001006991
  H          -3.27576228859360    -41.22927884096228     28.17658297088722
  C          -9.25280980810609    -45.74559038535977     30.88533419801856
  S          -7.50671347446065    -45.13698607422148     30.79284703069986
  P          -7.50996609998394    -43.01205465509858     31.02817770915433
  C          -6.04810853559445    -42.67226982981880     32.05175383816565
  O          -8.07942125889017    -42.29196101327872     29.84460750777923
  O          -8.79707387786325    -42.86058879043610     32.22825060481746
  C         -10.37548626554847    -42.13618492753464     34.20187345762164
  C          -8.91932987890197    -42.49706003439324     33.64525657908193
  C         -10.06328221108177    -45.95859920958100     29.57523772462922
  N         -11.30280013814402    -45.18899990538128     29.58020022231184
  C         -10.93759991798206    -43.83740007843284     29.09519985670424
  C         -11.10075853224593    -42.74368080010234     30.12704915580625
  C         -11.54410003764017    -43.40229992728158     27.75130006859549
  C         -12.44069993203421    -45.91760006914762     28.98559978930833
  C         -12.27300001633833    -46.41109996456979     27.54840002896508
  C         -13.75770000042618    -45.14649999038717     29.14560007723756
  H          -9.13747382057735    -46.69158690128020     31.43362960799572
  H          -9.79818879296523    -45.05558752986592     31.54257972280219
  H          -5.48633499875401    -41.82485233740567     31.65073826195674
  H          -5.40531993942969    -43.56072068816739     32.02707550565852
  H          -6.36313584063002    -42.47085386490767     33.08263369512511
  H         -10.41920002156210    -41.46749998813848     35.12830002115149
  H         -11.08019999526142    -42.95589999417187     34.49519998721764
  H         -10.92560000613833    -41.55789997502136     33.45840000631165
  H          -8.50276252319361    -43.31908750107809     34.25189030305209
  H          -8.30225387581357    -41.60222829318331     33.82172715451381
  H         -10.32059996846053    -47.00059997847599     29.34209999092658
  H          -9.43462803962405    -45.67194648637982     28.71333069476383
  H          -9.85302562067664    -43.86240289556134     28.91217605503092
  H         -12.14420000479640    -42.55259999562221     30.31030000374015
  H         -10.66579997494330    -41.81479999290428     29.74200001459991
  H         -10.59170999998097    -42.97768060394157     31.06656286574653
  H         -12.59540000167377    -43.24230003383232     27.86959998590092
  H         -11.37959998512327    -44.16730000633346     27.02139998673157
  H         -11.07939999931495    -42.49450000781971     27.42749999546815
  H         -12.47040000630969    -46.81719998314365     29.56420004042213
  H         -12.23239999752197    -45.57210000258537     26.88559999950508
  H         -13.10299999935059    -47.03320000483813     27.28579999858617
  H         -11.36629999791350    -46.97350000311250     27.46789999833197
  H         -13.71860000392447    -44.24930000583790     28.56389998368772
  H         -13.90230000286890    -44.89739999917685     30.17609999107311
  H         -14.57060000033635    -45.75510000302119     28.80829999485528
