88
Coordinates from ORCA-job scan_oxh E -2536.274925803367
  C          -4.34784713608593    -42.83568089348039     28.67488313371611
  O          -5.46333595958125    -42.65560032589213     29.60783577728346
  H          -4.69893490611193    -43.38587618271974     27.78676337263494
  H          -3.61142596803212    -43.46767134833522     29.19715290366040
  H          -6.27535348063156    -42.45413295087702     29.12244270161916
  H          -3.69177368488369    -41.84496704169353     28.25114182618187
  C          -6.36027512003072    -48.27800804700428     28.15020299789052
  C          -5.99912490334083    -47.09591606332848     27.30828801317066
  N          -5.05585378312538    -47.18064425636106     26.31736035913244
  C          -6.42531031394298    -45.78390249727548     27.28818435740108
  C          -4.95055993874792    -45.95781234573175     25.75052573505398
  N          -5.76360038482909    -45.08194982949595     26.30805952165088
  H          -7.43700219074926    -48.28859167296241     28.37377998134753
  H          -5.82359243122233    -48.26561448667277     29.11314494232715
  H          -7.15200812173100    -45.31264403050353     27.95142991805698
  H          -4.26452947545780    -45.75431185248304     24.92680256302264
  H          -6.08516401434161    -49.20705493447326     27.62033900978998
  C          -3.70207271990037    -50.84700126525722     23.16497836940355
  C          -4.08407977162646    -51.53620190098103     24.46644017103164
  C          -4.40232329338745    -50.54993474272737     25.60004382735410
  O          -3.81069688144634    -49.43373464196066     25.55380827237243
  O          -5.20726900571994    -50.91938857395147     26.47691651958865
  H          -3.59809732515339    -51.56224781550965     22.33454856221154
  H          -2.75312079570005    -50.30236868394513     23.27254152364928
  H          -4.96467130311541    -52.18443304291127     24.33495241404346
  H          -3.27046909446228    -52.19807741215588     24.81350517215602
  H          -4.47030000936952    -50.10495997174385     22.89581303043016
  H          -4.53112577322597    -48.05719754084809     26.05297380759404
  N          -7.64402520960421    -40.21399381287253     31.39761127825343
  H          -7.17672012116990    -40.48608043606104     30.54046068964036
  H          -8.70372464616782    -39.91026502972831     31.33717594198650
  C          -6.95599974038022    -39.64699440635385     32.36700086875055
  O          -7.44199893774063    -39.39700112290618     33.47400111282224
  H          -5.87838504270916    -39.61832120624396     32.20568016244594
  N          -8.93237598604408    -39.07185837643100     29.08491695674806
  H          -8.20155501514999    -39.75968932219696     28.95192015080986
  H          -9.18698887788205    -38.51394083108712     28.25780006469372
  C          -9.62900011818984    -38.97500722964413     30.22999506868772
  O         -10.60900122642448    -38.24200124097010     30.40399991529366
  H          -9.28002047684005    -39.62624121129722     31.03137078345550
  N          -4.40207429510776    -39.49963699159473     28.44490513804534
  H          -5.24114608108781    -39.98397764915839     28.74313621218242
  H          -4.38481199670959    -38.47214600005870     28.42150100722167
  C          -3.26300089357045    -40.14000002698562     28.13900089070507
  O          -2.22300001785487    -39.55499998840764     27.82999997920285
  H          -3.27576226082486    -41.22927887641021     28.17658330250400
  C          -9.37409918875608    -45.84750232897051     31.01181992839385
  S          -7.60996244199162    -45.31841824586278     31.04761663775311
  P          -7.58112903757502    -43.19305983105001     31.25341278546567
  C          -6.07248919422972    -42.96729223271667     32.21731276836741
  O          -7.92702062955689    -42.50741215103265     29.96380590721989
  O          -8.83945468214463    -42.90456078855257     32.32291365277149
  C         -10.38893190711184    -42.13132100864657     34.21659179591185
  C          -8.94363472318544    -42.49436536098134     33.72720238098238
  C         -10.07465440417867    -45.97308854343874     29.63448189890931
  N         -11.30280003693722    -45.18899995604175     29.58020008020603
  C         -10.93760002349787    -43.83740001356740     29.09519996389311
  C         -11.09954740094384    -42.74426674459171     30.12824645995892
  C         -11.54410001019741    -43.40229999716043     27.75130000727654
  C         -12.44069998987785    -45.91759998869432     28.98559991625468
  C         -12.27300000377644    -46.41110000839669     27.54840001624953
  C         -13.75770001287597    -45.14650001181983     29.14560001621402
  H          -9.34320037116184    -46.81226733788002     31.53856979145651
  H          -9.93931279020131    -45.15254334146100     31.64726749423037
  H          -5.68506334262479    -41.95078164959415     32.10839382402444
  H          -5.31491355312808    -43.66821678296755     31.85105779596947
  H          -6.31417588179815    -43.18540193170213     33.26637663753103
  H         -10.41920004400833    -41.46749998275146     35.12830004641115
  H         -11.08019999407960    -42.95589999154411     34.49519996847280
  H         -10.92560001137745    -41.55789994853218     33.45840001422375
  H          -8.52895089370636    -43.30165343478292     34.35207889564277
  H          -8.31814812073128    -41.59838055992087     33.85467935842231
  H         -10.32059994693724    -47.00059994211437     29.34210001958573
  H          -9.36145003948118    -45.64773697180674     28.85491592928813
  H          -9.85281504167253    -43.86797430895084     28.91039176250938
  H         -12.14420000351952    -42.55259999628866     30.31029999627977
  H         -10.66580000423602    -41.81480004890956     29.74199998126398
  H         -10.60264159301216    -42.98290266516457     31.07253036313661
  H         -12.59539999471267    -43.24230000425758     27.86959999951858
  H         -11.37959999066632    -44.16729999810050     27.02139999694904
  H         -11.07939999777203    -42.49449999934743     27.42749999812686
  H         -12.47040000113293    -46.81720000117726     29.56420001723150
  H         -12.23240000042923    -45.57209999777442     26.88559999962088
  H         -13.10299999786689    -47.03319999938046     27.28579999965329
  H         -11.36629999954497    -46.97350000007024     27.46789999876430
  H         -13.71859999694669    -44.24930000061912     28.56389999968611
  H         -13.90229999888705    -44.89739999601021     30.17609999940985
  H         -14.57059999683119    -45.75509999943708     28.80830000053626
