88
Coordinates from ORCA-job scan_oxh E -2536.167570076856
  C          -4.50906978863826    -42.83429755949128     28.84651080792052
  O          -5.91000078440180    -42.62874191807250     29.52380836847399
  H          -4.69276232299325    -43.58968210479345     28.06958588275986
  H          -3.90305192651202    -43.27340577695789     29.65030968010562
  H          -6.51047314772004    -42.29343410110869     28.83698380336352
  H          -3.69177436192766    -41.84496661561821     28.25114162137113
  C          -6.24804491563567    -48.22648916076674     28.09570604242771
  C          -5.67218411237403    -47.14741303966431     27.23675217660038
  N          -4.55945966554505    -47.34550712187139     26.46073665841685
  C          -6.02274694840863    -45.82966452931336     27.03328594595193
  C          -4.28791496639396    -46.17701770187047     25.83686426859510
  N          -5.14766514048298    -45.22978447909230     26.15790634429514
  H          -7.32445113143944    -48.06746561078708     28.25148304217354
  H          -5.76788632400892    -48.24977432842753     29.08798735360042
  H          -6.84664279027544    -45.28888270307550     27.50048264684685
  H          -3.44852056065867    -46.06728536552951     25.14823534767898
  H          -6.08516401642959    -49.20705494876334     27.62033901887595
  C          -3.55052979380004    -50.66179687996271     23.13989735574434
  C          -3.74788899702331    -51.49440469333258     24.40341022102041
  C          -4.12940814665644    -50.61249575194709     25.59946753642322
  O          -3.34380987048697    -49.64872326470768     25.83981749075038
  O          -5.17182906248852    -50.87989625894389     26.22671713444733
  H          -3.28853357844488    -51.28497864914115     22.27126119280340
  H          -2.74948820000660    -49.92418251656171     23.29373774414820
  H          -4.52930313992545    -52.25588199397036     24.25945706005429
  H          -2.81256225113275    -52.02620119480170     24.65027572655391
  H          -4.47030001124948    -50.10495996713745     22.89581304119541
  H          -4.05953652217824    -48.26555402469172     26.31446244184854
  N          -7.62972457077778    -40.13886545131767     31.36591224796900
  H          -7.16596783921448    -40.25369647579213     30.47534713447144
  H          -8.70372472539512    -39.91026578805211     31.33717553282465
  C          -6.95599974140723    -39.64699418258144     32.36700094619510
  O          -7.44199894119930    -39.39700122326808     33.47400113262007
  H          -5.87838503978535    -39.61832122059209     32.20568015081668
  N          -8.93239975338145    -39.08042235571634     29.08189224436622
  H          -8.34896234873592    -39.89594706617398     28.91520472476159
  H          -9.18698886211484    -38.51394081569361     28.25780006961738
  C          -9.62900014050296    -38.97500738752415     30.22999495913474
  O         -10.60900125079192    -38.24200127687273     30.40399989811306
  H          -9.28002032464587    -39.62624046884273     31.03137120999881
  N          -4.39853759806628    -39.50583489542998     28.45396590265314
  H          -5.25887319394332    -39.98572496637134     28.69381756931985
  H          -4.38481198964169    -38.47214598981328     28.42150100477985
  C          -3.26300100523460    -40.13999997215410     28.13900082596373
  O          -2.22300001201868    -39.55500000205794     27.82999996223541
  H          -3.27576157200032    -41.22927927399420     28.17658358509266
  C          -9.13495004405322    -45.68035925964015     30.72553135347090
  S          -7.43509663365297    -45.02165769061360     30.39264456417589
  P          -7.37091252680994    -42.92654349251249     30.83024408945709
  C          -6.03219727302277    -42.64759249463690     32.03801507685543
  O          -8.14058367808790    -42.11259527119194     29.81197132432361
  O          -8.77790631363822    -42.93133926089453     32.19418492291726
  C         -10.36753676489156    -42.14048703683936     34.19213480183134
  C          -8.90429977744622    -42.50456915344058     33.58291818878301
  C         -10.05541343418686    -45.94990516862500     29.50265439076066
  N         -11.30279999246526    -45.18899997809338     29.58020009393978
  C         -10.93760003512274    -43.83739999519764     29.09520000495300
  C         -11.10018917366171    -42.74318988829270     30.12691691859855
  C         -11.54410000113488    -43.40230000904472     27.75129998918386
  C         -12.44069998637868    -45.91759995776820     28.98559989202503
  C         -12.27299999920803    -46.41110002624433     27.54840001941444
  C         -13.75770001644448    -45.14650001789204     29.14560000954240
  H          -8.93342175606785    -46.60690116495422     31.28129295311590
  H          -9.60298674478282    -44.97049050740063     31.42010074139012
  H          -5.40773791908164    -41.80248597923769     31.73487186508344
  H          -5.41977987652228    -43.56011602273254     32.01905996132737
  H          -6.43750567166622    -42.49688769925948     33.04257071374466
  H         -10.41920003707149    -41.46749999509054     35.12830003603337
  H         -11.08019997797740    -42.95589998507730     34.49519996979742
  H         -10.92560003094976    -41.55789992930870     33.45840000619429
  H          -8.46490638983602    -43.27763689168730     34.24235119266382
  H          -8.31608541424377    -41.58358497879884     33.73494175143878
  H         -10.32059992728650    -47.00059994301651     29.34210004049610
  H          -9.49036159408032    -45.70502199289749     28.58054403213585
  H          -9.85347797027955    -43.86029930469490     28.91069326275939
  H         -12.14420000295275    -42.55259999815221     30.31029999326410
  H         -10.66580000413581    -41.81480005395578     29.74199997880786
  H         -10.57410887572824    -42.97080253103080     31.06019896705963
  H         -12.59539999751252    -43.24229999847546     27.86960000041434
  H         -11.37959999508660    -44.16729999513402     27.02139999471727
  H         -11.07939999861601    -42.49449999727292     27.42749999627554
  H         -12.47040000652428    -46.81720000131413     29.56420001626725
  H         -12.23240000478211    -45.57209999577390     26.88559999780114
  H         -13.10299999864091    -47.03319999867452     27.28579999884192
  H         -11.36630000038539    -46.97349999723168     27.46789999896614
  H         -13.71859999797178    -44.24930000130924     28.56390000043637
  H         -13.90229999700267    -44.89739999373051     30.17610000089383
  H         -14.57059999800481    -45.75509999927421     28.80830000289825
