88
Coordinates from ORCA-job scan_oxh E -2536.306190784464
  C          -4.06380669282739    -42.84679027554206     28.82283129866524
  O          -5.35120644704243    -42.79287048951911     29.43873786300719
  H          -3.98855619908803    -43.70167307517562     28.13276723227684
  H          -3.30113771266538    -42.98371965224766     29.61251785022317
  H          -5.94732668664786    -43.29301783270742     28.84924032349373
  H          -3.69177383637482    -41.84496707690596     28.25114171705454
  C          -6.93075886763101    -48.50602344329952     27.71185638425502
  C          -6.49846297312675    -47.09405746424287     27.47415775108662
  N          -5.74909245641485    -46.71309068609216     26.39064528782915
  C          -6.74744473512518    -45.93054770870545     28.16714983354769
  C          -5.57997795422240    -45.37497599148057     26.46514443618164
  N          -6.17678136466192    -44.85846863788746     27.52517071744871
  H          -7.69644726067239    -48.81392840812517     26.98130945043902
  H          -7.36894599995534    -48.60081889831091     28.71522205770619
  H          -7.27554866374188    -45.81499951096993     29.10972309397716
  H          -5.00522630323354    -44.81498574484860     25.72598908488307
  H          -6.08516400232213    -49.20705498858576     27.62033900191441
  C          -3.50171460672578    -50.50185072653115     23.22935481698598
  C          -3.53164904857432    -50.68147959112090     24.73742561674021
  C          -4.01013558420115    -49.44849283289713     25.51915975629224
  O          -4.60925863641400    -48.55371466508633     24.85195350951284
  O          -3.80959968601952    -49.43409683285550     26.74760967328909
  H          -3.30086477863773    -51.44810068336775     22.70389564815890
  H          -2.73149617626000    -49.77497450128009     22.92676411894046
  H          -4.21906493690931    -51.50144384810651     25.01253735862781
  H          -2.54874423467514    -50.97669625616398     25.13909141654458
  H          -4.47029999945155    -50.10496000008424     22.89581299909719
  H          -5.28453049589040    -47.40060736938594     25.72245883012878
  N          -7.65075603994133    -40.24928652223453     31.41138962211249
  H          -7.18238213597755    -40.55086229061374     30.56262332259404
  H          -8.70372311740092    -39.91025785348883     31.33717930047613
  C          -6.95599986053754    -39.64699591265955     32.36700078923375
  O          -7.44199904281562    -39.39700099128885     33.47400105972125
  H          -5.87838505097487    -39.61832108122919     32.20568006641809
  N          -8.93139779053324    -39.06964078736791     29.08582723719015
  H          -8.16356527946435    -39.71793012627460     28.96695370621503
  H          -9.18698901114356    -38.51394100910967     28.25779999006799
  C          -9.62900003747706    -38.97500591332415     30.22999606449394
  O         -10.60900098114702    -38.24200096643750     30.40400001073453
  H          -9.28002191802032    -39.62624829796124     31.03136671652761
  N          -4.40003150049601    -39.49731673128051     28.45078251046323
  H          -5.24781309156796    -39.98540898854253     28.71691016985976
  H          -4.38481199681759    -38.47214600051651     28.42150102030044
  C          -3.26300096465585    -40.14000001514153     28.13900088366401
  O          -2.22300001337324    -39.55499999181275     27.82999996717191
  H          -3.27576215115375    -41.22927891985722     28.17658338802822
  C          -9.64887770357666    -46.01873719638683     31.24106510632133
  S          -7.89802638649501    -45.60067157407185     31.62258072265763
  P          -7.74000118028202    -43.47726135449367     31.46431197955731
  C          -6.17563029667040    -43.20406231242571     32.29825046001237
  O          -7.94883294351289    -42.95763824575348     30.08185022369325
  O          -8.94787536879706    -42.94572141000095     32.43268978555573
  C         -10.40935647723722    -42.12394741185172     34.23759832090686
  C          -8.98438989875183    -42.51380035251091     33.81001850097856
  C         -10.11437330664165    -46.00132310851290     29.76271495074904
  N         -11.30279999124914    -45.18899999846463     29.58020008224123
  C         -10.93760001851935    -43.83740001282632     29.09519996934558
  C         -11.09890572197346    -42.74501998599894     30.12810912819223
  C         -11.54410001296193    -43.40229999428605     27.75130000985823
  C         -12.44069999500765    -45.91759997824471     28.98559990091269
  C         -12.27300000350304    -46.41110000761181     27.54840001793077
  C         -13.75770001239536    -45.14650001080619     29.14560001859406
  H          -9.75331633291816    -47.01607143726497     31.69362277075501
  H         -10.28636534141226    -45.33616784118744     31.81943595051931
  H          -6.01773978064022    -42.12749737769929     32.42816630768053
  H          -5.38650670464414    -43.59645389200788     31.64520703077489
  H          -6.18494929797581    -43.70647659593549     33.27459638045234
  H         -10.41920000499358    -41.46749999614786     35.12830000272785
  H         -11.08020000883448    -42.95590000129499     34.49520000536662
  H         -10.92560000662161    -41.55790000000272     33.45839999913095
  H          -8.59139879244562    -43.31860709219565     34.45297625972918
  H          -8.32758879832034    -41.63525376139504     33.90611997713091
  H         -10.32060000564124    -47.00060000255150     29.34209999389813
  H          -9.29124091802015    -45.62332106685499     29.13775194338513
  H          -9.85277460440731    -43.87448598918873     28.91179488205515
  H         -12.14420000120151    -42.55259999743303     30.31029999752025
  H         -10.66579997831739    -41.81479998399681     29.74200001680581
  H         -10.60823890683680    -42.98593030885256     31.07431021205751
  H         -12.59539999459536    -43.24230000300071     27.86959999976476
  H         -11.37959999278378    -44.16729999944302     27.02139999734875
  H         -11.07939999793377    -42.49449999968468     27.42749999815065
  H         -12.47040000133930    -46.81720000040913     29.56420001948375
  H         -12.23240000060137    -45.57209999800820     26.88559999967329
  H         -13.10299999747402    -47.03320000020582     27.28579999983069
  H         -11.36629999930697    -46.97350000039745     27.46789999858004
  H         -13.71859999714533    -44.24930000100361     28.56389999881027
  H         -13.90229999902324    -44.89739999615394     30.17609999888217
  H         -14.57059999688462    -45.75509999962331     28.80830000023916
