70
Coordinates from ORCA-job scan_alkoxide E -2027.385486854939
  C          -4.69100065481170    -42.25599995417743     28.39499930810926
  O          -5.32875037806741    -41.79948669869647     29.58200285734212
  H          -5.29130680730037    -41.98935824255318     27.51359976270247
  H          -4.56907167183952    -43.35002250325654     28.42630005403884
  H          -3.69177055355018    -41.84497005031318     28.25113954763423
  C          -6.71100035507363    -48.52399968524524     27.04599976897502
  C          -6.40257976816079    -47.06883822401716     27.10720254840628
  N          -5.33715017032572    -46.52344108299415     26.42970985979245
  C          -7.14329445313554    -46.05042646179925     27.65495656558308
  C          -5.43863865322399    -45.21483502757918     26.55008479895896
  N          -6.52213244272551    -44.88560042711779     27.27944620616944
  H          -6.66123096247544    -48.86344578952758     25.99973717002256
  H          -7.74296186500271    -48.69248554455446     27.38722541433265
  H          -8.05120334624760    -46.05320539164663     28.25461595156517
  H          -4.75571283688737    -44.48186311557524     26.12175984620060
  H          -6.08516369610894    -49.20705527811914     27.62033920743990
  C          -3.81500003469808    -49.39799999173615     22.38700008663703
  C          -2.66062047865758    -48.87774211137947     23.24628690883282
  C          -3.12678381578256    -47.84349104921713     24.24193891012059
  O          -3.97201539377254    -48.32491533099818     25.12585594867697
  O          -2.78937689411354    -46.67429430409261     24.20786082635501
  H          -3.41430809123211    -49.92031358386389     21.50506357628865
  H          -4.43348106378496    -48.56667885100807     22.01423721089009
  H          -2.18277493616364    -49.70685957244266     23.79207052883004
  H          -1.89592981964137    -48.40317960478356     22.61647024580549
  H          -4.47029997095069    -50.10495999874151     22.89581294978835
  H          -4.39366918274876    -47.55719989370993     25.66126420819887
  C         -11.10890493171380    -43.74995964660031     28.12812998653409
  S         -10.75098629438071    -44.34662793465710     29.82266181952662
  P          -6.79615952681147    -42.39088854160967     29.82065393444196
  C          -6.65371373229694    -43.90634718023384     30.75131317802485
  O          -7.52751849422563    -42.52640457760268     28.51388454149943
  O          -7.43208815695978    -41.40369220518394     30.89502380408459
  C          -9.37706351903269    -40.19897704582386     30.04182829021702
  C          -7.96238720670490    -40.10780938580252     30.57144556709445
  C         -10.37315281411809    -44.54428989270744     27.04482845739800
  N         -10.63685006759472    -44.09870921162449     25.68388206192754
  C          -9.80964664630919    -42.95528631230783     25.26512513143053
  C         -10.63269930346683    -41.80086266947559     24.68542938416511
  C          -8.59559121664565    -43.28460873032645     24.38735870982907
  C         -11.05318836783891    -45.15498276067567     24.75882669659603
  C          -9.97011258622251    -46.18919500647841     24.39908582870650
  C         -11.74019126726390    -44.62111999629212     23.50463572984025
  H         -12.19279713378992    -43.80044144109960     27.91269314922436
  H         -10.83352884575642    -42.68320560298197     28.02768076985659
  H          -6.20822742797406    -43.70928488732986     31.73477367708549
  H          -6.03174607339138    -44.62083938760694     30.19397870464579
  H          -7.66854360453987    -44.31750810819548     30.85618928166792
  H          -9.83664399600374    -39.20172102967949     30.07924996654038
  H          -9.97636783589625    -40.88582291656697     30.65819788264418
  H          -9.39962815826977    -40.55907969042158     29.00368824175944
  H          -7.93025473418193    -39.54848411868527     31.51618844088858
  H          -7.29050546953150    -39.60196588822015     29.85951839657356
  H         -10.66358306447361    -45.60294201800263     27.14994408244966
  H          -9.29687182966167    -44.49789934607040     27.29230715802143
  H          -9.39334512865650    -42.56880272570827     26.21022742822943
  H         -11.02599277256648    -42.01917302295389     23.68186583951072
  H         -10.01307996615325    -40.89319407047664     24.60964183768330
  H         -11.48262196035628    -41.57698499334682     25.34786116008105
  H          -8.87996897806889    -43.64193306169157     23.38636594834454
  H          -7.95350982458407    -44.04514102204267     24.85754185394099
  H          -7.98429889410611    -42.37829703365230     24.25218592043351
  H         -11.82860761161937    -45.71310809677436     25.31469985637067
  H          -9.21773099984436    -45.78603303025307     23.70718501846326
  H         -10.43492904098509    -47.06350199823481     23.91615301653744
  H          -9.44411300780960    -46.54884200020712     25.29732200932128
  H         -11.04179507510159    -44.09492090616888     22.83645901645508
  H         -12.55418607039057    -43.92886607248367     23.76568705435855
  H         -12.17263201740158    -45.45906999851664     22.93723300842964
  H          -6.82688108698962    -43.93915829042268     27.55350471089679
