70
Coordinates from ORCA-job scan_alkoxide E -2027.360179705485
  C          -4.69100039956487    -42.25599984740942     28.39499933621847
  O          -5.22055892193106    -41.83176356168715     29.63187172113165
  H          -5.30926495380722    -41.93544393575102     27.53933012051438
  H          -4.57855623688830    -43.35421226833683     28.34997232391073
  H          -3.69177075636383    -41.84497014647161     28.25113952478286
  C          -6.71100027556053    -48.52399969059527     27.04599978457996
  C          -6.40189700840894    -47.06995951824045     27.09036857873058
  N          -5.34270727240750    -46.52668203736785     26.40160892358177
  C          -7.14651664833988    -46.05085939110143     27.62851109049792
  C          -5.45164140447938    -45.21761537030616     26.50508163992588
  N          -6.53338715885254    -44.88716022376489     27.23588124522710
  H          -6.67114204017907    -48.87234086871211     26.00213209447689
  H          -7.74099049354674    -48.68657543042573     27.39604585614284
  H          -8.05199611974126    -46.05107960116932     28.23165495857542
  H          -4.77553695496712    -44.48516440796075     26.06538935896186
  H          -6.08516374319704    -49.20705527020043     27.62033920312982
  C          -3.81500003189761    -49.39800000022520     22.38700007453741
  C          -2.65497534074066    -48.88588061344902     23.24299301714887
  C          -3.11705212307282    -47.85219066820710     24.24006767157323
  O          -3.96406032524705    -48.33316693859594     25.12265107542250
  O          -2.77563421495806    -46.68405416304491     24.20874816677332
  H          -3.42037332812756    -49.91768239959541     21.50078354906499
  H          -4.43222140369863    -48.56272487263313     22.02103035081857
  H          -2.17950618417717    -49.71807844002952     23.78616025342174
  H          -1.88991242684395    -48.41286325786484     22.61245943485516
  H          -4.47029997243439    -50.10495999285337     22.89581295457973
  H          -4.38997443445046    -47.56352311105725     25.65052798714526
  C         -11.11417591662085    -43.75014286541551     28.12290752990335
  S         -10.77738223077650    -44.35226364579579     29.81893912009273
  P          -6.97947063934821    -42.52331381323690     29.82677634371082
  C          -6.77923360790277    -44.06289288018512     30.68627087800601
  O          -7.59838657202747    -42.54801814525612     28.46670179582379
  O          -7.57551403039091    -41.54736209912394     30.91721865179029
  C          -9.42339808256308    -40.21853448544891     30.04376778688871
  C          -8.02766841855403    -40.20703738755711     30.62390463148825
  C         -10.37353763020772    -44.54378880310910     27.04360745520220
  N         -10.63685069697225    -44.09870917195624     25.68388216595025
  C          -9.80964644929078    -42.95528632191309     25.26512522563597
  C         -10.63269927540826    -41.80086267432939     24.68542939918212
  C          -8.59559102769920    -43.28460868048519     24.38735839525761
  C         -11.05318778764842    -45.15498277952987     24.75882650351920
  C          -9.97011263886173    -46.18919500747590     24.39908586878239
  C         -11.74019138298289    -44.62111998690379     23.50463578079724
  H         -12.19535721717286    -43.79877928691443     27.89362108868582
  H         -10.83815101910370    -42.68301262271906     28.02715534550568
  H          -6.33856832641320    -43.87943516514937     31.67405791027665
  H          -6.13285650173365    -44.72620745209227     30.09660979660959
  H          -7.78585880435328    -44.50022333288319     30.77605323326377
  H          -9.83664399112647    -39.20172103074969     30.07924996959682
  H         -10.07452830552883    -40.88612663706266     30.62761370456471
  H          -9.41610735486825    -40.56439674620146     29.00125090351457
  H          -7.99603344369706    -39.68974430729781     31.59142212356715
  H          -7.29974331046583    -39.72439591936956     29.95385685683442
  H         -10.66358302852006    -45.60294201766435     27.14994402578477
  H          -9.29450958406586    -44.50142877008117     27.27914895312523
  H          -9.39302704388050    -42.56943714290313     26.21041136332414
  H         -11.02599278710232    -42.01917302183383     23.68186583381032
  H         -10.01307997246077    -40.89319407848855     24.60964184170455
  H         -11.48262196618189    -41.57698499749181     25.34786115780433
  H          -8.87996899740864    -43.64193306891583     23.38636599925643
  H          -7.95350996563787    -44.04514107358626     24.85754196943648
  H          -7.98429894233029    -42.37829703194760     24.25218598275449
  H         -11.82860768253279    -45.71310807584845     25.31469989440916
  H          -9.21773101804021    -45.78603302927429     23.70718500178999
  H         -10.43492903769505    -47.06350200845046     23.91615302877418
  H          -9.44411301230208    -46.54884200100322     25.29732200681934
  H         -11.04179506998390    -44.09492093944883     22.83645901825544
  H         -12.55418606797080    -43.92886605350209     23.76568704755596
  H         -12.17263202282464    -45.45907000144416     22.93723300529376
  H          -6.84985879212464    -43.94361409028852     27.49562891749921
