88
Coordinates from ORCA-job scan_oxh2
  C          -4.29791018873127    -42.70233634973599     29.17857360271166
  O          -5.75980082926579    -42.87179356267940     29.53202551712933
  H          -3.87120741138547    -43.70260443592389     29.00535903340072
  H          -3.83676564637865    -42.29587741081164     30.09486506177593
  H          -6.08116227609689    -43.44565200537754     28.79629999721780
  H          -3.69177380802441    -41.84496710130430     28.25114159303206
  C          -6.54724632903701    -48.55057701314614     26.85908432917058
  C          -6.11920969723976    -47.12160177895472     26.98854442042871
  N          -4.92069326845855    -46.64036718392407     26.52135029740984
  C          -6.73335540845217    -46.04091622765269     27.57624023129466
  C          -4.85765262213908    -45.32970403790355     26.84057023190702
  N          -5.93666218079777    -44.92494624256576     27.49161273894928
  H          -6.27582810410225    -48.94988865746474     25.87061493360800
  H          -7.63722114721749    -48.62656710159565     26.97576025507334
  H          -7.69729430344080    -46.01549286801107     28.07424815693819
  H          -4.00539313909691    -44.70226237280635     26.57664294609523
  H          -6.08516401028772    -49.20705494390002     27.62033900751511
  C          -3.37939775975083    -50.24913297114060     22.95501981326737
  C          -2.92070961880162    -50.48339279536382     24.38652681033130
  C          -3.19949088124755    -49.34040106080638     25.37599620079111
  O          -3.55799056491069    -48.23127166157895     24.87918137520033
  O          -3.04496152376467    -49.57818388263845     26.58678700007656
  H          -3.12011394660601    -51.10193694624436     22.30837334948290
  H          -2.91076186250874    -49.34687196308018     22.53485667243017
  H          -3.37852658899992    -51.39383777205858     24.80772843593909
  H          -1.83207236304047    -50.66765126384173     24.41713439327857
  H          -4.47030000892211    -50.10495995918112     22.89581304267077
  H          -4.24804775488904    -47.21516529073458     25.93172138497934
  N          -7.63109028970569    -40.15947610225518     31.37106122394327
  H          -7.16730199008308    -40.34376376782177     30.49007820092153
  H          -8.70372428186398    -39.91026460236660     31.33717557637169
  C          -6.95599989859805    -39.64699471406232     32.36700119942110
  O          -7.44199891990724    -39.39700108717586     33.47400102756399
  H          -5.87838499750552    -39.61832109527845     32.20568008290082
  N          -8.93293684618402    -39.07880590590318     29.08261100935346
  H          -8.31149706167011    -39.86506433923631     28.92033283142609
  H          -9.18698886714135    -38.51394080610933     28.25780008484850
  C          -9.62900004365517    -38.97500732785524     30.22999495423251
  O         -10.60900126215303    -38.24200128356818     30.40399990885602
  H          -9.28002075253067    -39.62624125278733     31.03137111121183
  N          -4.39802975704019    -39.50403096763579     28.45625303356933
  H          -5.26171134489543    -39.99112608793340     28.67227855537744
  H          -4.38481199253928    -38.47214599853010     28.42150103141550
  C          -3.26300091618965    -40.14000004286476     28.13900076459578
  O          -2.22300003415258    -39.55499999203084     27.82999995007480
  H          -3.27576216052819    -41.22927884197217     28.17658364594633
  C          -9.24023262650921    -45.73773396780088     30.87506788549430
  S          -7.48893488092970    -45.13233571332057     30.77303791362461
  P          -7.47907265685039    -43.00435050815257     31.00016240331191
  C          -6.03197848411817    -42.65719445426216     32.04480972261540
  O          -8.06885482433832    -42.27987857130999     29.82977820650378
  O          -8.77493420135849    -42.85677253822276     32.20917371740900
  C         -10.37245326837193    -42.13769837383943     34.19812720604383
  C          -8.91223172882270    -42.49888950324658     33.63112398887727
  C         -10.06179054817613    -45.95721898629430     29.57166604822568
  N         -11.30280014442415    -45.18899989115647     29.58020022613872
  C         -10.93759992123835    -43.83740007735559     29.09519985702768
  C         -11.10028683041967    -42.74370952179514     30.12723032807494
  C         -11.54410003491822    -43.40229992788569     27.75130006717625
  C         -12.44069993073598    -45.91760007475295     28.98559979269493
  C         -12.27300001678156    -46.41109996366368     27.54840002854309
  C         -13.75770000040862    -45.14649999017225     29.14560007744775
  H          -9.12156785032852    -46.68089275383443     31.42745896733367
  H          -9.77939714305779    -45.04260129903778     31.53216180516464
  H          -5.46787841388441    -41.80619201286451     31.65526417485015
  H          -5.38558745631721    -43.54328802775933     32.02870130804944
  H          -6.36076133043502    -42.45933005179796     33.07236533120586
  H         -10.41920003833498    -41.46749998761383     35.12830004412547
  H         -11.08019999241755    -42.95589999356477     34.49519997329141
  H         -10.92559999549867    -41.55789996302707     33.45840001526489
  H          -8.49714277443814    -43.32348172108799     34.23515610076817
  H          -8.29688676992785    -41.60474100453678     33.81519917242614
  H         -10.32059994121133    -47.00059995696841     29.34209999639522
  H          -9.43764982268404    -45.67038931391770     28.70694240146383
  H          -9.85306438082215    -43.86244268224929     28.91187892415100
  H         -12.14420000518592    -42.55259999465350     30.31030000301427
  H         -10.66580003093063    -41.81480007993076     29.74199996420633
  H         -10.58981162424711    -42.97770699708034     31.06644658497398
  H         -12.59540000187937    -43.24230003431894     27.86959998583209
  H         -11.37959998482341    -44.16730000610332     27.02139998667176
  H         -11.07939999937773    -42.49450000783075     27.42749999550018
  H         -12.47040000599827    -46.81719998323231     29.56420003986733
  H         -12.23239999740301    -45.57210000263684     26.88559999951141
  H         -13.10299999935497    -47.03320000485229     27.28579999860549
  H         -11.36629999789060    -46.97350000313428     27.46789999835914
  H         -13.71860000395131    -44.24930000584271     28.56389998372070
  H         -13.90230000289877    -44.89739999926803     30.17609999109408
  H         -14.57060000033723    -45.75510000304721     28.80829999485382
