70
Coordinates from ORCA-job scan_alkoxide E -2027.329229608680
  C          -4.69100054074664    -42.25600002797636     28.39499941910425
  O          -5.45060775138850    -41.81911128902623     29.43031924825674
  H          -5.16090076727531    -42.11878625841233     27.38114758454844
  H          -4.47213124703778    -43.36355315692965     28.42576962318903
  H          -3.69177061980827    -41.84497000520506     28.25113945040934
  C          -6.71100010003518    -48.52399980281981     27.04599987294031
  C          -6.22064747334032    -47.12245269969358     26.97772044233212
  N          -5.02978712387406    -46.75556158814360     26.39635114790631
  C          -6.88586649072348    -45.98955549763316     27.35882650246615
  C          -4.98952568698857    -45.43520997607036     26.41153060647718
  N          -6.09962430280022    -44.93323770519012     26.97925861496857
  H          -6.79341402802489    -48.94917274938022     26.03278995465977
  H          -7.71464534411571    -48.54414791188518     27.49302266717446
  H          -7.82973304614287    -45.86136478568654     27.87988325628469
  H          -4.17957889466412    -44.81958337649556     26.02248867490965
  H          -6.08516388684386    -49.20705516897153     27.62033912236387
  C          -3.81500002817713    -49.39800000231192     22.38700006141286
  C          -2.55187735899644    -49.05357814657960     23.17896555800356
  C          -2.87478209512709    -48.09484007967149     24.29721281800061
  O          -3.69140582572846    -48.60570101466786     25.19042162513709
  O          -2.46856498579808    -46.94699060511542     24.33784343868454
  H          -3.54044560481748    -49.85769290573378     21.42538428522231
  H          -4.39728307732465    -48.49218390506694     22.15719868047809
  H          -2.10228584643649    -49.96575436079820     23.60243948309173
  H          -1.80448931827705    -48.57316031998131     22.53305345861479
  H          -4.47029997751106    -50.10495999299607     22.89581295897402
  H          -4.11206555605969    -47.83831117735465     25.73959328113996
  C         -10.39096009572373    -43.71756843222242     28.16318334024325
  S          -9.41302468222443    -44.20345746377377     29.63360146507089
  P          -7.52882161839883    -43.01944170453692     29.44561434806734
  C          -6.50857257752849    -44.19494474204888     30.36016574879067
  O          -7.53323481783519    -42.75684474393005     27.95750414119912
  O          -7.86425783356011    -41.86927374540746     30.52080569418139
  C          -9.62676452054884    -40.27444804237588     30.15319616653267
  C          -8.13304973307604    -40.52167748799635     30.15026250258679
  C         -10.15922252174953    -44.63661034927284     26.95545420316142
  N         -10.63685162265928    -44.09870895620199     25.68388206546460
  C          -9.80964606052407    -42.95528624205057     25.26512562360821
  C         -10.63269920362869    -41.80086290704187     24.68542901644704
  C          -8.59559096603801    -43.28460876748434     24.38735825978216
  C         -11.05318678327075    -45.15498303837698     24.75882632430000
  C          -9.97011279794110    -46.18919497438555     24.39908592444122
  C         -11.74019166876740    -44.62111993414476     23.50463590529786
  H         -11.44777685891946    -43.73034749223406     28.47053529213408
  H         -10.13711376071004    -42.67726165019791     27.92174827929364
  H          -5.56707790023940    -43.68063106772091     30.57876990756505
  H          -6.35149331377961    -45.10712917283202     29.77219271829586
  H          -7.04851337390563    -44.44928609529361     31.28354987314478
  H          -9.83664399218691    -39.20172102479272     30.07924996358149
  H         -10.06609788531768    -40.64188087714533     31.09263052119114
  H         -10.12262976549503    -40.78712423608126     29.31520965478956
  H          -7.62899135896237    -39.89181526658376     30.89871679680743
  H          -7.66641525021631    -40.31093738537544     29.17664030169345
  H         -10.66358292608444    -45.60294200827844     27.14994403456358
  H          -9.07837263950143    -44.84235365822717     26.90909777042732
  H          -9.37686022197801    -42.57031274491483     26.19863120642724
  H         -11.02599282725604    -42.01917300253086     23.68186594661830
  H         -10.01307998427250    -40.89319400641425     24.60964195681450
  H         -11.48262199869029    -41.57698496435532     25.34786121176347
  H          -8.87996901456478    -43.64193306197878     23.38636597121188
  H          -7.95351001109538    -44.04514105050180     24.85754195680760
  H          -7.98429898032811    -42.37829702881337     24.25218598592824
  H         -11.82860784687652    -45.71310799070116     25.31469994248295
  H          -9.21773101358211    -45.78603301947575     23.70718499342728
  H         -10.43492902321824    -47.06350200340660     23.91615300822212
  H          -9.44411301258441    -46.54884199562442     25.29732199931079
  H         -11.04179504436704    -44.09492098526637     22.83645900383037
  H         -12.55418604989633    -43.92886603011476     23.76568702169264
  H         -12.17263201904518    -45.45907000777731     22.93723299919846
  H          -6.35322471196190    -43.95167960862420     27.16780988324948
