88
Coordinates from ORCA-job scan2d_oxh E -2536.221073463613
  C          -4.18457067363432    -42.65076622173557     29.14360158682915
  O          -5.55899335867673    -42.75608456256725     29.45500747653730
  H          -3.70134199803866    -43.63695881341150     28.94108655017705
  H          -3.61165462023642    -42.22078443572741     30.00677420006313
  H          -5.80517399036385    -43.98503189523731     28.46048068586183
  H          -3.69177536233379    -41.84496632157627     28.25114078906364
  C          -6.61005409208194    -48.55622400350517     26.90227147984818
  C          -6.15744530648239    -47.14151096981194     27.05354531638573
  N          -5.03983207299156    -46.63703666018720     26.43168119897561
  C          -6.64732988206193    -46.13034160656021     27.83724309788969
  C          -4.86600524733200    -45.37744311404773     26.83660683712937
  N          -5.83044622601350    -45.03892488371206     27.68725369032363
  H          -6.40372712426886    -48.92738036052891     25.88897017113034
  H          -7.68778025103194    -48.63596436401837     27.09719496513049
  H          -7.50045127325247    -46.12083043403395     28.50469447843846
  H          -4.05351978918308    -44.72793128570561     26.51632444552856
  H          -6.08516399362657    -49.20705505662533     27.62033901051730
  C          -3.37350057372290    -50.19243080640444     22.93841913926326
  C          -2.89602936727933    -50.33356417524229     24.37539789282669
  C          -3.29049066950042    -49.18606746892859     25.31386203110298
  O          -3.77802561101276    -48.14689007179399     24.76393143012962
  O          -3.11111922532968    -49.33857115445942     26.53163501842611
  H          -3.07638702619781    -51.05967190429595     22.32855497685864
  H          -2.95731948523352    -49.28739380566345     22.47192311404651
  H          -3.27503756156113    -51.26317646653561     24.83127592821938
  H          -1.79583124307824    -50.41673593470997     24.41764120086703
  H          -4.47029998569467    -50.10496003754179     22.89581296661047
  H          -4.42242130196556    -47.22124735668144     25.73927506045441
  N          -7.64127490559369    -40.19807745831376     31.38906248111351
  H          -7.17975358829198    -40.47378311982617     30.52898324283627
  H          -8.70372240717944    -39.91025541593979     31.33718046986766
  C          -6.95599992415500    -39.64699649309111     32.36700087916157
  O          -7.44199907425677    -39.39700094352164     33.47400099189953
  H          -5.87838501706029    -39.61832100793849     32.20568001840613
  N          -8.93117678087640    -39.07207707042294     29.08491343333733
  H          -8.23733483285267    -39.79616792990942     28.94193898563856
  H          -9.18698904841665    -38.51394106729429     28.25779995959679
  C          -9.62900001276816    -38.97500544515804     30.22999646527208
  O         -10.60900088382673    -38.24200088494478     30.40400002896603
  H          -9.28002244942920    -39.62625074532601     31.03136522160168
  N          -4.40104474404241    -39.49932844614455     28.45124847540878
  H          -5.24858386238536    -39.99703013300439     28.70271321629198
  H          -4.38481193916839    -38.47214599034392     28.42150113418247
  C          -3.26300142270270    -40.13999989752192     28.13900004925115
  O          -2.22299999950497    -39.55500003609873     27.82999985618513
  H          -3.27576056219103    -41.22927961900533     28.17658520217622
  C          -9.36466916632940    -45.83014810964909     31.00770160829734
  S          -7.61186925058810    -45.25710082151404     31.05922641793178
  P          -7.60881226995634    -43.12090887743961     31.17406118598262
  C          -6.07727704745606    -42.82607292332351     32.08870515630738
  O          -8.08411821091892    -42.45428551263279     29.92785471911056
  O          -8.85063639952206    -42.87076172331855     32.31323239912226
  C         -10.38777802748081    -42.13093303125110     34.21682350597117
  C          -8.94274324156807    -42.49625909278834     33.71651289238381
  C         -10.07601992996242    -45.97041800705304     29.63489402024936
  N         -11.30279979222297    -45.18899998618372     29.58019987017785
  C         -10.93760011439236    -43.83739998081795     29.09520007429525
  C         -11.10073925718911    -42.74377506110869     30.12714608211259
  C         -11.54409993171670    -43.40230000218622     27.75129997490565
  C         -12.44070010560683    -45.91760007189937     28.98560014147016
  C         -12.27299998835717    -46.41109996710427     27.54839996731297
  C         -13.75769996960484    -45.14649995730804     29.14559993752800
  H          -9.30620063133850    -46.79786371337128     31.52692608911845
  H          -9.94915080103745    -45.15637467702328     31.64848751073908
  H          -5.61426350122201    -41.89757228420049     31.74797091575911
  H          -5.38466066236886    -43.64568931038128     31.86879864444196
  H          -6.30398093821132    -42.79394573747377     33.16335481176603
  H         -10.41919998192592    -41.46750000504067     35.12829997478866
  H         -11.08020000482867    -42.95590000317037     34.49520001091849
  H         -10.92560000488031    -41.55790001913653     33.45839998903940
  H          -8.53576070864965    -43.31791985886969     34.32988886861206
  H          -8.31218926268156    -41.60735908600933     33.87317043890405
  H         -10.32060000374591    -47.00060002428059     29.34210000216000
  H          -9.37861419549327    -45.65113954065535     28.84076230699832
  H          -9.85272596959303    -43.86469337065319     28.91358665642213
  H         -12.14419999420150    -42.55260000071446     30.31029999524547
  H         -10.66580000827027    -41.81479999435845     29.74199999665019
  H         -10.59938509319836    -42.97939558986133     31.06974726616794
  H         -12.59540000560748    -43.24229999517390     27.86960000393497
  H         -11.37960001921321    -44.16730000715984     27.02140000382753
  H         -11.07940000486967    -42.49450000167356     27.42749999993336
  H         -12.47039998089558    -46.81719998818676     29.56419997937557
  H         -12.23240000031575    -45.57210000684707     26.88560000296973
  H         -13.10299999888054    -47.03320000782273     27.28580000693106
  H         -11.36629999921017    -46.97350000315340     27.46790000137931
  H         -13.71860000180836    -44.24930000044819     28.56390001206017
  H         -13.90230000614950    -44.89740001210713     30.17610000913021
  H         -14.57060000098168    -45.75510000329817     28.80830000320754
