70
Coordinates from ORCA-job scan_alkoxide E -2027.339857894082
  C          -4.69100040472519    -42.25599985264347     28.39499933516845
  O          -5.48690918433241    -41.81667710112887     29.43558697244960
  H          -5.17230734021448    -42.10929139611614     27.40419747966672
  H          -4.48721315960377    -43.35241476697158     28.45388762108445
  H          -3.69177075032578    -41.84497014235136     28.25113952500294
  C          -6.71100026978198    -48.52399969385650     27.04599978821633
  C          -6.23422511735600    -47.11714775441632     26.97647340361241
  N          -5.07317672801028    -46.74210305736825     26.34170107572306
  C          -6.88957960470623    -45.98822906752549     27.38841846889119
  C          -5.04215744529207    -45.42188489633799     26.35039983061073
  N          -6.13024037719934    -44.92781320085637     26.96590899461906
  H          -6.79028273451163    -48.94684191914875     26.03173389213041
  H          -7.71532230490012    -48.55187352784009     27.49146672450747
  H          -7.80206354997974    -45.84497102759702     27.96312595951806
  H          -4.25550739056296    -44.80195618788276     25.92217494515077
  H          -6.08516374688685    -49.20705526818008     27.62033920090122
  C          -3.81500003117819    -49.39800000037086     22.38700007345685
  C          -2.55392412220206    -49.04808806141723     23.17963243420952
  C          -2.88537181960692    -48.08509510119332     24.29143952864520
  O          -3.70872929678246    -48.59360278999942     25.17896634775485
  O          -2.48587925275898    -46.93451660361414     24.32704270217078
  H          -3.53822946457673    -49.85946883216262     21.42680131333174
  H          -4.39884403707401    -48.49407775108869     22.15360521619215
  H          -2.10352856393741    -49.95717681920667     23.60877575328176
  H          -1.80591017142032    -48.56907576375561     22.53337899960495
  H          -4.47029997302390    -50.10495999294632     22.89581295517577
  H          -4.14849025971033    -47.82231910912947     25.71134066159026
  C         -10.30477399581484    -43.71724195447542     28.16671942926805
  S          -9.28543565233231    -44.18093043274579     29.61561515479125
  P          -7.21231110619556    -42.82808652130661     29.44184527805976
  C          -6.40420368609864    -44.14578486373038     30.39250339978410
  O          -7.41470485270425    -42.67048858686830     27.94690098536404
  O          -7.74979233522005    -41.77485191458315     30.53903236915442
  C          -9.58934774420467    -40.26343818004985     30.18768006673216
  C          -8.08708898016101    -40.43898358065352     30.17781513222208
  C         -10.13942563581594    -44.64562808335913     26.95103391588599
  N         -10.63685084978638    -44.09870902649724     25.68388225654234
  C          -9.80964631929701    -42.95528636686888     25.26512527246393
  C         -10.63269933139836    -41.80086277540075     24.68542911215075
  C          -8.59559103457384    -43.28460869102544     24.38735840002810
  C         -11.05318767253190    -45.15498289264731     24.75882641918202
  C          -9.97011266182286    -46.18919498696027     24.39908588671891
  C         -11.74019141607869    -44.62111996352517     23.50463579475495
  H         -11.36113478777781    -43.69439256428098     28.48120719984885
  H         -10.03391725386936    -42.68718106315297     27.89741137420261
  H          -5.48891975150847    -43.73613700838249     30.83336262174520
  H          -6.16859632589984    -44.99083137537087     29.73365763772696
  H          -7.09422649590518    -44.48854051412947     31.17387305225014
  H          -9.83664399208803    -39.20172103031548     30.07924996844630
  H         -10.00873382464685    -40.62036419256990     31.14001623389133
  H         -10.06387628788073    -40.82311203950331     29.36805656206210
  H          -7.60979022393475    -39.78148338438299     30.92081576784240
  H          -7.65309567599216    -40.19417525471211     29.19598746634821
  H         -10.66358300202489    -45.60294204200260     27.14994401290287
  H          -9.06821355124873    -44.89272645913150     26.87093594774946
  H          -9.37686601774203    -42.56938245296117     26.19720841433774
  H         -11.02599275465429    -42.01917300834858     23.68186591172673
  H         -10.01307997625828    -40.89319402868870     24.60964194474032
  H         -11.48262197258357    -41.57698497555308     25.34786120055522
  H          -8.87996899851823    -43.64193305661794     23.38636598931711
  H          -7.95350998261379    -44.04514108250352     24.85754195974076
  H          -7.98429894642576    -42.37829703212658     24.25218597941267
  H         -11.82860769779401    -45.71310804887022     25.31469991393634
  H          -9.21773101504034    -45.78603302953756     23.70718499702533
  H         -10.43492903608077    -47.06350200651466     23.91615302482301
  H          -9.44411300951369    -46.54884200218623     25.29732200503356
  H         -11.04179506730732    -44.09492094644154     22.83645901846950
  H         -12.55418606716622    -43.92886605397549     23.76568704478205
  H         -12.17263202051949    -45.45907000304246     22.93723300932481
  H          -6.39440334025136    -43.94753162648426     27.15639498794929
