88
Coordinates from ORCA-job scan2d_oxh E -2536.254363357998
  C          -4.11071515505977    -42.72004654874287     29.03205678753321
  O          -5.43212258913160    -42.72304525067649     29.46432740567156
  H          -3.76343160585425    -43.69450365471268     28.59789787301257
  H          -3.37908961515011    -42.51844003438926     29.86680471299238
  H          -5.84269184428068    -44.11364681712774     28.39771587019540
  H          -3.69177387656680    -41.84496724892031     28.25114079467780
  C          -6.70594373575429    -48.54055035913643     27.00006118526495
  C          -6.28419493375128    -47.11235862336297     27.13609564557199
  N          -5.43408820238369    -46.49636549658393     26.24626324135048
  C          -6.58362607112710    -46.18287435174256     28.09708853592913
  C          -5.22387210687471    -45.25091869036689     26.65563611191924
  N          -5.91486813286168    -45.02883298085979     27.77308535324648
  H          -6.61607882260695    -48.86693672233842     25.95516266835697
  H          -7.75015067429969    -48.66561371153211     27.31727459872220
  H          -7.18719168883418    -46.24951037527118     28.99616479368839
  H          -4.57936674346506    -44.52533960732180     26.16334231091250
  H          -6.08516399532035    -49.20705502446977     27.62033899982658
  C          -3.42557484192278    -49.81217147490069     22.71251825622925
  C          -2.70087010963141    -49.58638633350009     24.02971503580731
  C          -3.36653779290723    -48.57995622604030     24.97105640671949
  O          -4.25870426436262    -47.82589194035627     24.45003547446654
  O          -3.00756613622235    -48.54509949749102     26.15413250541702
  H          -2.94267592299998    -50.60236706233329     22.11764767205360
  H          -3.44710780681763    -48.89243971791297     22.10983648632362
  H          -2.58891669652486    -50.52666772838420     24.59320605260389
  H          -1.67217015082525    -49.22475805404944     23.85497804837257
  H          -4.47029999252227    -50.10496002754236     22.89581296976972
  H          -4.88997189850094    -47.04395716176496     25.41341518342357
  N          -7.64462898609431    -40.21641509895949     31.39632118165559
  H          -7.18250928582251    -40.57822553444051     30.56650571412320
  H          -8.70372222221137    -39.91025441277790     31.33718084069332
  C          -6.95600010998921    -39.64699641083789     32.36700076904744
  O          -7.44199903934673    -39.39700102671350     33.47400101843901
  H          -5.87838499031215    -39.61832110344623     32.20568002543610
  N          -8.93151666156433    -39.06997470958531     29.08587600760469
  H          -8.15631715236935    -39.71123603635933     28.97558460560210
  H          -9.18698907132747    -38.51394109260094     28.25779995943039
  C          -9.62899997438867    -38.97500531238617     30.22999651725601
  O         -10.60900086428960    -38.24200084936653     30.40400005240329
  H          -9.28002271630031    -39.62625162679461     31.03136490362575
  N          -4.40204750803214    -39.49801278328756     28.44834080489423
  H          -5.23763176034563    -40.00088714121456     28.72820890993760
  H          -4.38481197573621    -38.47214599733165     28.42150111751870
  C          -3.26300100718440    -40.14000005236600     28.13900036389203
  O          -2.22300006513262    -39.55499999317041     27.82999984862544
  H          -3.27576207221529    -41.22927876810294     28.17658481560892
  C          -9.49555347441685    -45.92940600064970     31.12423894274551
  S          -7.73807393094581    -45.42819816879388     31.33542132154844
  P          -7.69758396449170    -43.28560798533067     31.34879229887996
  C          -6.13808162162058    -42.97857507118457     32.17679709795486
  O          -8.06231619473362    -42.66978543987988     30.04319212558795
  O          -8.92795259260858    -42.96275226623889     32.42003525574231
  C         -10.40294246467235    -42.12521799626509     34.23253026381218
  C          -8.97062396029593    -42.49823758376758     33.78542868220004
  C         -10.09117922670859    -45.98477935642396     29.69449262828551
  N         -11.30279998337764    -45.18900000837287     29.58020003079730
  C         -10.93759999885419    -43.83740000779053     29.09519999671628
  C         -11.10023568232277    -42.74425665886916     30.12753764319853
  C         -11.54410000384008    -43.40229999100395     27.75130001053930
  C         -12.44069999615986    -45.91759999936491     28.98559995043130
  C         -12.27300000268814    -46.41109999774245     27.54840000872474
  C         -13.75770000319363    -45.14649999996107     29.14560000998090
  H          -9.51615749734514    -46.91648249278433     31.60915539845750
  H         -10.10633254672563    -45.25613103100176     31.74083116032894
  H          -6.18534795096455    -42.04746875276891     32.75404919321777
  H          -5.44419328948007    -42.89833721974523     31.31436912397913
  H          -5.91283743608706    -43.81565771444853     32.85015844234755
  H         -10.41919998820292    -41.46749999917006     35.12829998257157
  H         -11.08020001600438    -42.95590000517484     34.49520002684649
  H         -10.92559999881562    -41.55790002963256     33.45839999266884
  H          -8.55146762261994    -43.27587732601950     34.44570865551725
  H          -8.34025887334558    -41.59902727294942     33.86793511776130
  H         -10.32060003940944    -47.00060003150860     29.34209999186009
  H          -9.32577042572767    -45.63788188520020     28.97853067586312
  H          -9.85274380971150    -43.86922486459690     28.91477531508272
  H         -12.14419999913229    -42.55259999925675     30.31029999989035
  H         -10.66580000275905    -41.81479998093269     29.74200000537405
  H         -10.60583679397485    -42.98314500196700     31.07249023842400
  H         -12.59539999906923    -43.24230000302351     27.86959999843954
  H         -11.37959999873255    -44.16730000163157     27.02139999769099
  H         -11.07939999971401    -42.49450000061157     27.42749999849037
  H         -12.47040000128750    -46.81719999696919     29.56420000883292
  H         -12.23239999897635    -45.57210000000423     26.88559999940976
  H         -13.10299999943066    -47.03320000062940     27.28579999960805
  H         -11.36629999912348    -46.97350000064053     27.46789999911965
  H         -13.71859999953534    -44.24930000006379     28.56389999815188
  H         -13.90229999995661    -44.89739999951443     30.17609999824881
  H         -14.57059999889334    -45.75510000017221     28.80829999935581
