88
Coordinates from ORCA-job scan_oxh2 E -2536.247861864442
  C          -4.21324993195067    -42.72046447833309     29.09160051956493
  O          -5.62594536583192    -42.80747276921867     29.49316651915709
  H          -3.86126881295080    -43.71848988575223     28.78373242870146
  H          -3.66079400166398    -42.44057281127055     30.00689779500462
  H          -6.03031315743427    -43.32763599631191     28.76514134879360
  H          -3.69177374648682    -41.84496710696321     28.25114183227173
  C          -6.70396510415591    -48.51403385667577     27.02214164096100
  C          -6.22045227471586    -47.09702315448251     27.07476190169084
  N          -5.09558471963212    -46.64713209234401     26.42814118214123
  C          -6.71937468468004    -45.99432279969643     27.72843794900715
  C          -4.96354422949891    -45.33308558616245     26.70966170011906
  N          -5.92665593963669    -44.89539571064041     27.50315372135173
  H          -6.70533552174179    -48.89114193177474     25.98803126759226
  H          -7.73230149670832    -48.56740188799461     27.40589406645526
  H          -7.58649152230824    -45.93061799344650     28.37557417271166
  H          -4.14533772958986    -44.72992630002361     26.31362309880958
  H          -6.08516400957035    -49.20705495591367     27.62033900484795
  C          -3.38445859712368    -50.26726921218011     22.98454511618736
  C          -2.98187922451606    -50.49165084462250     24.43357640342424
  C          -3.34938695146686    -49.34971733093076     25.39447195054502
  O          -3.66197683698436    -48.24335246322123     24.86141222438925
  O          -3.30363754772508    -49.58323023736586     26.61487153983177
  H          -3.11605225004795    -51.12829658969255     22.35253838128099
  H          -2.89119036864856    -49.37389107985463     22.57419115038192
  H          -3.43038342889906    -51.41409776431063     24.83752145675660
  H          -1.88995546330894    -50.63854319400041     24.51402342473850
  H          -4.47030000993552    -50.10495997173189     22.89581303052950
  H          -4.48662070842684    -47.23918574555650     25.78683745464991
  N          -7.63878289811769    -40.19070371378216     31.38333401690418
  H          -7.17470615385938    -40.41103790135229     30.50967721600498
  H          -8.70372388859816    -39.91026205551456     31.33717709970432
  C          -6.95599993219360    -39.64699518771489     32.36700105766241
  O          -7.44199894623353    -39.39700104934622     33.47400101891446
  H          -5.87838499244683    -39.61832107822318     32.20568005526037
  N          -8.93200380115749    -39.07460051971566     29.08372323915090
  H          -8.26957105545069    -39.82608770678211     28.93078967045509
  H          -9.18698892441890    -38.51394089608741     28.25780004491557
  C          -9.62900003705632    -38.97500675964205     30.22999541493740
  O         -10.60900114393819    -38.24200115627168     30.40399994883148
  H          -9.28002119264615    -39.62624400296036     31.03136930292986
  N          -4.39850059075296    -39.50173551087044     28.45779551707962
  H          -5.25812359173453    -39.98918338759997     28.68682650514670
  H          -4.38481200089660    -38.47214599934158     28.42150100165817
  C          -3.26300089412282    -40.14000003770576     28.13900093249588
  O          -2.22300002183967    -39.55499999134594     27.82999998564125
  H          -3.27576224597355    -41.22927883636540     28.17658323067807
  C          -9.33286008093209    -45.80163162446331     30.97380111902905
  S          -7.57602458816582    -45.22699167722823     31.01560083808389
  P          -7.55920279192216    -43.09323952825233     31.12667859444153
  C          -6.04984576473404    -42.78653108802958     32.07989339221461
  O          -8.03532152445062    -42.43036640964764     29.87693945329488
  O          -8.82277187214889    -42.83273730416944     32.26209920160653
  C         -10.38172925725972    -42.13363256428232     34.20974908631503
  C          -8.93290301375962    -42.50378796473264     33.68437350229912
  C         -10.07141122253844    -45.96664695435067     29.61620140143946
  N         -11.30280007892126    -45.18899996577949     29.58020004107184
  C         -10.93759996058924    -43.83740001344525     29.09519997360970
  C         -11.10039768859860    -42.74411092678519     30.12715611771431
  C         -11.54410002591430    -43.40229999548950     27.75130001204276
  C         -12.44069995736502    -45.91760000892211     28.98559996524074
  C         -12.27300001296554    -46.41109999623617     27.54840000324379
  C         -13.75770000940297    -45.14650000612684     29.14560001333690
  H          -9.26443487167921    -46.76262727042570     31.50399267442634
  H          -9.91022379778520    -45.12220388382760     31.61509947065056
  H          -5.56624302589402    -41.86543109453545     31.74658027496051
  H          -5.35857080014661    -43.62041768639161     31.91053258137247
  H          -6.30973506152622    -42.72859266203636     33.14501780166735
  H         -10.41920002484040    -41.46749998747335     35.12830002505284
  H         -11.08019999523385    -42.95589999403483     34.49519998529445
  H         -10.92560000527322    -41.55789997287925     33.45840000769006
  H          -8.53750227519646    -43.35050769556701     34.27003459848617
  H          -8.29373187035700    -41.62758072553156     33.87499442784155
  H         -10.32059996759764    -47.00059996912032     29.34210001448297
  H          -9.40145507836476    -45.66804881675633     28.79291472934582
  H          -9.85296844853655    -43.86551919791972     28.91202013312943
  H         -12.14420000341207    -42.55259999853727     30.31030000057388
  H         -10.66579998783423    -41.81480000813016     29.74200000261246
  H         -10.59829036413223    -42.97964788048053     31.06946153657078
  H         -12.59539999716478    -43.24230000481553     27.86959999745217
  H         -11.37959999046495    -44.16729999755405     27.02139999660735
  H         -11.07939999772671    -42.49449999970246     27.42749999907473
  H         -12.47040000770735    -46.81719999900292     29.56420000556533
  H         -12.23239999684517    -45.57209999984898     26.88560000025607
  H         -13.10299999835745    -47.03320000059470     27.28579999965755
  H         -11.36629999871709    -46.97350000037537     27.46790000021129
  H         -13.71859999949798    -44.24929999996691     28.56389999784486
  H         -13.90229999856205    -44.89739999741101     30.17609999831190
  H         -14.57059999924933    -45.75509999942427     28.80829999948695
