88
Coordinates from ORCA-job scan_oxh E -2536.182958391212
  C          -4.49859948201262    -42.83244991142333     28.84541504509377
  O          -5.86472046071095    -42.63142591255824     29.56414908338517
  H          -4.70756322809984    -43.56093707815129     28.04991370725946
  H          -3.86953634113161    -43.29874038634858     29.61612246885793
  H          -6.49289770865345    -42.29067165623391     28.90769721834783
  H          -3.69177435313028    -41.84496662783098     28.25114160597192
  C          -6.25954008652275    -48.23559451673592     28.10928561689296
  C          -5.70282098829825    -47.13978212302514     27.25841504468910
  N          -4.59794750524969    -47.32099543300571     26.46626196207692
  C          -6.06632743441739    -45.82318896447815     27.07279167010122
  C          -4.34396828371413    -46.14396644167210     25.85079350821483
  N          -5.20804440452808    -45.20764111469904     26.19207664461173
  H          -7.33760473423910    -48.09624029083886     28.27308169460106
  H          -5.77334006629165    -48.26304148903540     29.09844923847690
  H          -6.88757919435365    -45.29347391548475     27.55652752798706
  H          -3.51483545618941    -46.01984699103446     25.15226522889572
  H          -6.08516401623910    -49.20705495087259     27.62033901809647
  C          -3.54547212169225    -50.65175286139430     23.14354602664023
  C          -3.73476088914081    -51.47613973154358     24.41326504661939
  C          -4.12731932110458    -50.58940212225497     25.60222014429567
  O          -3.35864201446967    -49.60924681587228     25.83084443099393
  O          -5.16299998695049    -50.86921662972810     26.23518472081687
  H          -3.27914640833972    -51.27928352807163     22.27929761642033
  H          -2.75082413274628    -49.90594449159418     23.29066350194309
  H          -4.50698965588176    -52.24789636183797     24.27477751134925
  H          -2.79351227947016    -51.99506430645850     24.66516447247522
  H          -4.47030001079145    -50.10495996826965     22.89581303941239
  H          -4.08982008249925    -48.23466253959868     26.30911516293717
  N          -7.62970605853825    -40.14919906769327     31.36877954296163
  H          -7.16400483126585    -40.28263160398477     30.48180441976235
  H          -8.70372467790286    -39.91026547448279     31.33717572166760
  C          -6.95599974710010    -39.64699424502831     32.36700093523549
  O          -7.44199894460237    -39.39700121818488     33.47400113080820
  H          -5.87838503967592    -39.61832121274234     32.20568014721171
  N          -8.93281736524084    -39.07993783727552     29.08220741734542
  H          -8.33444700682898    -39.88439601804644     28.91844820371946
  H          -9.18698886891569    -38.51394082610471     28.25780006497605
  C          -9.62900013891874    -38.97500731693305     30.22999501479416
  O         -10.60900123682155    -38.24200126172931     30.40399990295584
  H          -9.28002037077727    -39.62624079450446     31.03137099306554
  N          -4.39878413333927    -39.50505422860308     28.45371822026996
  H          -5.25677020337317    -39.98651116990268     28.69898890976798
  H          -4.38481198939841    -38.47214598982337     28.42150100599650
  C          -3.26300100400180    -40.13999997328214     28.13900081886425
  O          -2.22300001281314    -39.55500000186195     27.82999996075080
  H          -3.27576158165450    -41.22927926554394     28.17658360321500
  C          -9.15194211061116    -45.69672654309635     30.75464007188050
  S          -7.44878407512725    -45.03531402868666     30.45558645489353
  P          -7.41411773764193    -42.93957012359811     30.91179344463391
  C          -6.02333105501786    -42.69806523244567     32.06514135179183
  O          -8.11403323070883    -42.14208445275068     29.83115699745544
  O          -8.75950905362350    -42.90651128092673     32.18940923850480
  C         -10.36755298910543    -42.14000518578457     34.19188355982573
  C          -8.90186585703018    -42.49962008718236     33.59601447575680
  C         -10.05554447868680    -45.95186881204405     29.51527360348729
  N         -11.30279999188976    -45.18899997974267     29.58020009320832
  C         -10.93760003478140    -43.83739999516273     29.09520000485412
  C         -11.10046317714237    -42.74327376144754     30.12698459661332
  C         -11.54410000131864    -43.40230000900353     27.75129998930167
  C         -12.44069998656119    -45.91759995701656     28.98559989162870
  C         -12.27299999903819    -46.41110002652412     27.54840001956625
  C         -13.75770001647189    -45.14650001805342     29.14560000963097
  H          -8.96339550228919    -46.63016855478318     31.30349666944846
  H          -9.64150830656055    -45.00084936124242     31.44847865476782
  H          -5.47198419451199    -41.78494436522261     31.82694610165775
  H          -5.34994811786623    -43.55288773087979     31.91945481501278
  H          -6.38555827641767    -42.67906908719943     33.09828671779068
  H         -10.41920003523182    -41.46749999508349     35.12830003338384
  H         -11.08019997799843    -42.95589998499067     34.49519997085862
  H         -10.92560003256978    -41.55789993005541     33.45840000511977
  H          -8.47110583773111    -43.29242994594542     34.23329410122057
  H          -8.30531562287483    -41.58791048537325     33.75711474885276
  H         -10.32059992900014    -47.00059994490184     29.34210004016571
  H          -9.47542583895069    -45.69922307819922     28.60470460195364
  H          -9.85333459215488    -43.86105814606949     28.91122006586559
  H         -12.14420000287590    -42.55259999817893     30.31029999330759
  H         -10.66580000486377    -41.81480005606944     29.74199997845210
  H         -10.58151049091831    -42.97437871308504     31.06270566321602
  H         -12.59539999749990    -43.24229999842304     27.86960000042144
  H         -11.37959999513365    -44.16729999516362     27.02139999472661
  H         -11.07939999861407    -42.49449999727451     27.42749999627422
  H         -12.47040000653886    -46.81720000135080     29.56420001635519
  H         -12.23240000483087    -45.57209999574025     26.88559999778235
  H         -13.10299999867412    -47.03319999862158     27.28579999881204
  H         -11.36630000041029    -46.97349999720819     27.46789999895499
  H         -13.71859999796536    -44.24930000129198     28.56390000041024
  H         -13.90229999698629    -44.89739999368714     30.17610000087109
  H         -14.57059999800196    -45.75509999925915     28.80830000289063
