70
Coordinates from ORCA-job scan_alkoxide E -2027.330437964093
  C          -4.69100065848225    -42.25599987154306     28.39499928297755
  O          -5.46343703637228    -41.81659111953672     29.42767197144799
  H          -5.16009995061200    -42.12090736709624     27.38480267677081
  H          -4.47476292909281    -43.36081655472000     28.43611390361368
  H          -3.69177053982205    -41.84497012555246     28.25113956132687
  C          -6.71100012480080    -48.52399978168119     27.04599985220336
  C          -6.21987450212650    -47.12265830390987     26.97483714691981
  N          -5.03342148671121    -46.75745071364162     26.38341685391492
  C          -6.88172478369259    -45.98852741434218     27.35862951108975
  C          -4.99284747254299    -45.43719752604266     26.39369649551807
  N          -6.09862441211981    -44.93346513201869     26.96819582704093
  H          -6.79541264197540    -48.95005677920489     26.03337309630422
  H          -7.71397716934262    -48.54260971751437     27.49460165030838
  H          -7.81879341238846    -45.85428258625512     27.89117769866399
  H          -4.18584795151822    -44.82323279421134     25.99596164806292
  H          -6.08516386378615    -49.20705519819388     27.62033914307074
  C          -3.81500003007762    -49.39800000330100     22.38700006874702
  C          -2.55016426738336    -49.05643281169584     23.17738118468180
  C          -2.87172932919695    -48.09894972677593     24.29698747408412
  O          -3.69168279176704    -48.60917596057384     25.18733282473046
  O          -2.46314610961610    -46.95196026871723     24.33991323312256
  H          -3.54283109373975    -49.85645785281555     21.42409665054322
  H          -4.39658055347301    -48.49110065007145     22.15969825953442
  H          -2.10120744921997    -49.96968543395484     23.59922073518795
  H          -1.80292810698356    -48.57608787141594     22.53124189410705
  H          -4.47029997597994    -50.10495999229882     22.89581295395134
  H          -4.11556499106826    -47.84060916577402     25.73337709606179
  C         -10.35192814128231    -43.71813452953422     28.16377165769696
  S          -9.35035955715591    -44.19824912256219     29.62004093724262
  P          -7.44898741608001    -42.97742540294485     29.43501151210683
  C          -6.47141271082666    -44.18834550798235     30.35899534308746
  O          -7.49834522042282    -42.73241377930566     27.94200340751438
  O          -7.83791415149388    -41.84917981717364     30.51923355593726
  C          -9.61752102036424    -40.27233926436888     30.15791453652748
  C          -8.12131332569603    -40.50352066737026     30.15277082382407
  C         -10.14995586926285    -44.64087594859572     26.95196941785422
  N         -10.63685155018104    -44.09870890243385     25.68388218884687
  C          -9.80964605557137    -42.95528632374502     25.26512547785880
  C         -10.63269923866707    -41.80086287974586     24.68542904075603
  C          -8.59559097840628    -43.28460874333453     24.38735831065608
  C         -11.05318692404378    -45.15498303264213     24.75882631617985
  C          -9.97011276765979    -46.18919498333410     24.39908592684640
  C         -11.74019161336142    -44.62111993991941     23.50463588110527
  H         -11.40498936543265    -43.72148559020226     28.48502375780152
  H         -10.09525514949798    -42.68054575668170     27.91401645123356
  H          -5.52196114428069    -43.71564940883893     30.62672339750717
  H          -6.31776000780663    -45.09067296372672     29.75483417171565
  H          -7.04667105888695    -44.45493774108807     31.25717310859260
  H          -9.83664398045953    -39.20172104140320     30.07924996549051
  H         -10.05193525202064    -40.64027882057048     31.09942886979755
  H         -10.10917328367875    -40.79363455933930     29.32281197029448
  H          -7.62320544989953    -39.86792030403783     30.90070891548342
  H          -7.66183442363917    -40.28292903063907     29.17763902343058
  H         -10.66358291181209    -45.60294203059198     27.14994402249319
  H          -9.07255248643847    -44.86178205834889     26.89085990873888
  H          -9.37621877096354    -42.56997458071772     26.19771151540566
  H         -11.02599280641511    -42.01917300263655     23.68186593959663
  H         -10.01307998588375    -40.89319400770663     24.60964196483253
  H         -11.48262199369582    -41.57698496215522     25.34786121412102
  H          -8.87996901344115    -43.64193305932810     23.38636597272365
  H          -7.95351000890075    -44.04514105665270     24.85754195489397
  H          -7.98429897392023    -42.37829702947449     24.25218598316248
  H         -11.82860781730338    -45.71310799567631     25.31469994085747
  H          -9.21773101620903    -45.78603302132949     23.70718498802315
  H         -10.43492902594823    -47.06350200195768     23.91615301093158
  H          -9.44411301367285    -46.54884199505613     25.29732199825648
  H         -11.04179505284937    -44.09492098061499     22.83645900974004
  H         -12.55418605731619    -43.92886603102216     23.76568702775189
  H         -12.17263202133264    -45.45907000666759     22.93723300259855
  H          -6.35397402881151    -43.95159546055721     27.15479780394068
