70
Coordinates from ORCA-job scan_alkoxide E -2027.322277278375
  C          -4.69100013928666    -42.25599992025239     28.39500005829992
  O          -5.20623108714048    -42.02870482222547     29.61804384709620
  H          -5.28315125187961    -41.84879496443045     27.51552398605938
  H          -4.56443389455493    -43.34904845593199     28.12070691938854
  H          -3.69177089807940    -41.84497006731451     28.25113894633266
  C          -6.71100000341044    -48.52399998831930     27.04599997287476
  C          -6.03180895245509    -47.23096226040607     26.75552466772332
  N          -4.74313912323763    -47.16113196870506     26.27532862240533
  C          -6.49700906993624    -45.94548384360967     26.82782406653613
  C          -4.43102006310508    -45.89339590738583     26.05824335192323
  N          -5.47739366918494    -45.13463834804862     26.38633463658457
  H          -6.97640304994270    -49.03600970497907     26.10779077322559
  H          -7.63819238950980    -48.34416748952631     27.60544549091076
  H          -7.45560895573486    -45.54467231821812     27.14198350649140
  H          -3.47962196662872    -45.54651669603679     25.66227278703006
  H          -6.08516399410556    -49.20705501021454     27.62033901815305
  C          -3.81500001620684    -49.39800001727640     22.38700001667039
  C          -2.47983877008480    -49.22313359204777     23.11239622215754
  C          -2.68477479198204    -48.46691720330055     24.41783262549019
  O          -3.42982187392293    -49.04958539039237     25.27934695246624
  O          -2.20346917164147    -47.33369636000299     24.55717460150915
  H          -3.65917336551656    -49.77614646286954     21.36468238186102
  H          -4.34633392872793    -48.43648964399151     22.30386585860381
  H          -2.03355749229665    -50.20841605557105     23.32538830606190
  H          -1.77108971985066    -48.65711442330040     22.49055596295506
  H          -4.47029998497015    -50.10495998445119     22.89581298370463
  H          -4.09457732542376    -48.04027434020417     25.94739503018014
  C         -10.86732259549373    -43.71907726221971     28.12163561013127
  S         -10.17654622502244    -44.17202298763655     29.75158861251122
  P          -8.29901316983355    -43.17959100237877     29.60539554340369
  C          -7.01648881046418    -44.29617750065938     30.13246652750934
  O          -8.16814635898148    -42.56249215646235     28.24591546906710
  O          -8.32454603938396    -42.12891132405494     30.83682039776705
  C          -9.77304393718678    -40.29613345673576     30.12660220516877
  C          -8.40147367319582    -40.71858913177863     30.60901446625978
  C         -10.28522198219993    -44.58237410896695     27.00268828023099
  N         -10.63685162191619    -44.09870901467700     25.68388191559745
  C          -9.80964609912654    -42.95528603545831     25.26512599440877
  C         -10.63269906736001    -41.80086296746159     24.68542895367595
  C          -8.59559100125319    -43.28460891800560     24.38735806286885
  C         -11.05318650506655    -45.15498297750428     24.75882619705932
  C          -9.97011289617068    -46.18919498656621     24.39908592016609
  C         -11.74019186930455    -44.62111999688934     23.50463595905563
  H         -11.95456086420679    -43.86328418208662     28.20813698470974
  H         -10.68152074855920    -42.65146968251860     27.94597464134767
  H          -6.12024293636155    -43.61888027102454     30.05850082025728
  H          -6.95537261740883    -45.16283885641140     29.46204427623301
  H          -7.20413144002324    -44.62328228690349     31.16486357325761
  H          -9.83664399787947    -39.20172100361616     30.07924999978072
  H         -10.55208429976015    -40.65828971350661     30.81397237648979
  H          -9.97467772000779    -40.69566322223217     29.12186156164768
  H          -8.17098861617902    -40.25996166186240     31.58138341198657
  H          -7.59980326083441    -40.43710612835235     29.90856574126516
  H         -10.66358301801307    -45.60294200865849     27.14994401148081
  H          -9.19192416298572    -44.63769219815325     27.15320831565303
  H          -9.38687461137352    -42.57479534596544     26.20775983767136
  H         -11.02599297597311    -42.01917300208566     23.68186601466132
  H         -10.01307998877533    -40.89319400104720     24.60964200074379
  H         -11.48262198350737    -41.57698500468654     25.34786100626382
  H          -8.87996899635242    -43.64193301966462     23.38636599047659
  H          -7.95351000267608    -44.04514102783349     24.85754198924833
  H          -7.98429899607468    -42.37829701363876     24.25218599536799
  H         -11.82860791214267    -45.71310802860983     25.31469995728236
  H          -9.21773100231714    -45.78603300715093     23.70718501648410
  H         -10.43492901195442    -47.06350200336129     23.91615301050840
  H          -9.44411300310729    -46.54884200092377     25.29732200728685
  H         -11.04179500994252    -44.09492098342431     22.83645899374455
  H         -12.55418600460465    -43.92886601094897     23.76568700934003
  H         -12.17263200042296    -45.45906999995903     22.93723299846273
  H          -5.50297645110579    -44.11896134947769     26.35026853210604
