88
Coordinates from ORCA-job scan_oxh E -2536.300888087813
  C          -4.08048564732673    -42.84530117942033     28.83531267989371
  O          -5.36835655073123    -42.79323063437010     29.46815025856697
  H          -4.01494933413880    -43.70416063028639     28.14962583966011
  H          -3.31631342884056    -42.98401503977592     29.62255242638404
  H          -5.97808480234239    -43.25482177859924     28.86477868182082
  H          -3.69177402184367    -41.84496696580833     28.25114164448973
  C          -6.92788851670803    -48.50066207201399     27.70055831724451
  C          -6.49384817799130    -47.09135985489704     27.44738655695185
  N          -5.73595818599411    -46.72277571369836     26.36559419644954
  C          -6.75340516384686    -45.91853949595280     28.12075369241731
  C          -5.57310638356708    -45.38259384411990     26.42260509216884
  N          -6.18164184142761    -44.85287470236043     27.46940057079037
  H          -7.69245573159203    -48.81555211978392     26.97170946473349
  H          -7.36983777160201    -48.58257496494690     28.70347015954561
  H          -7.28755361067201    -45.79193389365908     29.05824202116364
  H          -4.99522045014261    -44.83102793388991     25.67948996749202
  H          -6.08516400212535    -49.20705499160943     27.62033900262707
  C          -3.50650557004831    -50.52109287154107     23.21997021281992
  C          -3.53270001256614    -50.70866800368912     24.72713395078142
  C          -4.00250086581623    -49.47584916694196     25.51433797230628
  O          -4.58571454405855    -48.57003219223436     24.84799576157642
  O          -3.80892076279888    -49.47043064666303     26.74390075746917
  H          -3.32438525317526    -51.46721168231207     22.68753753747971
  H          -2.72610513003392    -49.80499463143892     22.91781367903402
  H          -4.22443194824602    -51.52548396071692     25.00057183037266
  H          -2.55061815039159    -51.01178428181530     25.12507769741055
  H          -4.47029999943524    -50.10496000055750     22.89581299887715
  H          -5.26672201504731    -47.41661268924423     25.70713626895305
  N          -7.64920224671021    -40.24305234033124     31.40822790772998
  H          -7.18092505882888    -40.53780159346798     30.55723232188395
  H          -8.70372314642032    -39.91025806533033     31.33717916703852
  C          -6.95599984027495    -39.64699590597431     32.36700080576586
  O          -7.44199904441679    -39.39700098796923     33.47400105945587
  H          -5.87838505350927    -39.61832107139642     32.20568006529864
  N          -8.93122641087550    -39.06945566070736     29.08581691787010
  H          -8.16904174159000    -39.72382212996238     28.96425622894770
  H          -9.18698900458536    -38.51394100273169     28.25779999466321
  C          -9.62900003110461    -38.97500596085474     30.22999602267046
  O         -10.60900099319588    -38.24200097800800     30.40400000756378
  H          -9.28002188512217    -39.62624808128504     31.03136686093213
  N          -4.39989772220416    -39.49772166569491     28.45115799641855
  H          -5.24793572492870    -39.98573306290456     28.71668719461236
  H          -4.38481198845035    -38.47214599869175     28.42150103602435
  C          -3.26300102231437    -40.13999999729378     28.13900076561507
  O          -2.22300001141052    -39.55499999744217     27.82999995575440
  H          -3.27576195419362    -41.22927901779978     28.17658359127967
  C          -9.60618402557429    -45.98630955304758     31.21204988497871
  S          -7.85268016293299    -45.54481303074244     31.55945827305848
  P          -7.70828700020009    -43.41710086843704     31.42227183504373
  C          -6.15222974077172    -43.15483790835589     32.27742015953469
  O          -7.93787841303935    -42.88381485808316     30.04823717348163
  O          -8.92121717958272    -42.90520709996021     32.40442258819622
  C         -10.40554693213752    -42.12553447600720     34.23404306482610
  C          -8.97706849685618    -42.51511385294108     33.79705894978000
  C         -10.10659017222674    -45.99610152105447     29.74443702021994
  N         -11.30279998402171    -45.18899999145666     29.58020008968516
  C         -10.93760002067511    -43.83740001574214     29.09519996380515
  C         -11.09901853814489    -42.74495991072155     30.12813136331081
  C         -11.54410001140099    -43.40229999226811     27.75130001091864
  C         -12.44069999440304    -45.91759998104471     28.98559989325193
  C         -12.27300000419165    -46.41110000670367     27.54840002006800
  C         -13.75770001314041    -45.14650001100705     29.14560002259723
  H          -9.68981338051532    -46.97880376768450     31.67924757746048
  H         -10.24067977262190    -45.30475057773466     31.79483635638807
  H          -5.95017913969188    -42.08110355115206     32.35383871816786
  H          -5.35841330077684    -43.61790660575969     31.68072115065820
  H          -6.21684486024759    -43.60234734354064     33.27837185710672
  H         -10.41920000447261    -41.46749999710809     35.12830000246895
  H         -11.08020000692023    -42.95590000117818     34.49520000310373
  H         -10.92560000559441    -41.55789999932562     33.45839999915531
  H          -8.59468447981827    -43.34211615831347     34.41786530714861
  H          -8.31556485039591    -41.64486294730524     33.92713084871114
  H         -10.32060000093722    -47.00060000112421     29.34209999252277
  H          -9.30117975163040    -45.63022898006543     29.08905937040897
  H          -9.85279092840700    -43.87324333332766     28.91156539554046
  H         -12.14420000126736    -42.55259999725808     30.31029999751427
  H         -10.66579997709317    -41.81479998404566     29.74200001718484
  H         -10.60793776207012    -42.98582684092055     31.07425681624429
  H         -12.59539999500130    -43.24230000377472     27.86959999952984
  H         -11.37959999303008    -44.16729999974159     27.02139999735244
  H         -11.07939999816046    -42.49449999994469     27.42749999812882
  H         -12.47040000124990    -46.81720000008949     29.56420002098710
  H         -12.23240000045115    -45.57209999792678     26.88559999942579
  H         -13.10299999747510    -47.03320000018149     27.28579999960025
  H         -11.36629999918074    -46.97350000046693     27.46789999838187
  H         -13.71859999717241    -44.24930000111117     28.56389999803363
  H         -13.90229999901846    -44.89739999606027     30.17609999827896
  H         -14.57059999673984    -45.75509999968749     28.80829999994902
