88
Coordinates from ORCA-job scan2d_oxh E -2536.229472803769
  C          -4.22287278137193    -42.62855899939242     29.15368382392963
  O          -5.58319697356855    -42.69901275272660     29.44884550811590
  H          -3.74991994891184    -43.62924694511520     28.96503854089411
  H          -3.62513259359135    -42.19495375809539     30.00766039028630
  H          -5.79506503496374    -44.13377440663012     28.38274470589888
  H          -3.69177531100542    -41.84496632548976     28.25114100001123
  C          -6.55583248997843    -48.53532627933784     26.88300231412897
  C          -6.09567524985783    -47.12820153932660     27.07915005027180
  N          -4.98368812285873    -46.60643544257980     26.45659838341905
  C          -6.57987656510468    -46.14645929819181     27.90027906427504
  C          -4.79958423399586    -45.36538770709301     26.89168347451181
  N          -5.75411519947862    -45.05740362687259     27.76992340131405
  H          -6.29403167731448    -48.89078257885076     25.87717908922117
  H          -7.64424924474910    -48.60500261616092     27.01132391145585
  H          -7.42275967632302    -46.13918719176148     28.58009349273560
  H          -3.99628323371242    -44.70049715690651     26.58092209719808
  H          -6.08516399309288    -49.20705505652435     27.62033901019029
  C          -3.37597534718429    -49.99465470409539     22.83632104121508
  C          -2.73974893065812    -50.10060601936792     24.21427355331205
  C          -3.22377742153152    -49.06606522517908     25.23346414216235
  O          -3.76391461948192    -48.01439203083156     24.74845177149502
  O          -3.05530105606055    -49.28921065282571     26.43848767669996
  H          -2.99289447094886    -50.77166843652916     22.15706872853434
  H          -3.17123343874675    -49.01347751609009     22.38444579608240
  H          -2.90099597146037    -51.09518803560587     24.65963994410058
  H          -1.64362492569297    -49.98401657821719     24.14329102099990
  H          -4.47029998533532    -50.10496003948800     22.89581296486029
  H          -4.36858425160757    -47.19227451613708     25.70452107368226
  N          -7.64032036476551    -40.19535391086645     31.38761840235745
  H          -7.17892472354300    -40.49955692228487     30.53604928115045
  H          -8.70372237721761    -39.91025521563248     31.33718056723007
  C          -6.95599992815258    -39.64699654220056     32.36700087053745
  O          -7.44199907569304    -39.39700093920321     33.47400099052646
  H          -5.87838501724859    -39.61832100192141     32.20568001263329
  N          -8.93043332822536    -39.07109625025020     29.08552791486542
  H          -8.22923347793498    -39.78898397163793     28.94691148914205
  H          -9.18698905235250    -38.51394107373339     28.25779995749988
  C          -9.62900000987351    -38.97500540565683     30.22999649518455
  O         -10.60900087621154    -38.24200087609025     30.40400003217539
  H          -9.28002248855067    -39.62625094597924     31.03136510424465
  N          -4.40310492243318    -39.49959163141244     28.44546316845415
  H          -5.24259639572543    -40.00220330612844     28.71537166519024
  H          -4.38481194600448    -38.47214599114499     28.42150111089735
  C          -3.26300140590941    -40.13999989409847     28.13900018970853
  O          -2.22299999039390    -39.55500003526201     27.82999988396886
  H          -3.27576062485732    -41.22927962068009     28.17658485089781
  C          -9.36331657583486    -45.82822181412251     31.00624599772213
  S          -7.61385866556800    -45.24559719744912     31.05868142587691
  P          -7.61991169958585    -43.10849337268483     31.17340885305635
  C          -6.08599300272362    -42.80755675016200     32.08374588364688
  O          -8.11716862582244    -42.43966059650771     29.93711376540276
  O          -8.85670926787234    -42.87964655722204     32.32219467252080
  C         -10.38885031915418    -42.13001143343843     34.21789004968103
  C          -8.94390584857144    -42.48822242766133     33.71905758813423
  C         -10.07493723458696    -45.97026883502291     29.63358116097617
  N         -11.30279979953648    -45.18899998500455     29.58019987850895
  C         -10.93760010884120    -43.83739998380016     29.09520006869927
  C         -11.10117355370039    -42.74356233413604     30.12675830299959
  C         -11.54409993536008    -43.40230000014598     27.75129997771206
  C         -12.44070010136585    -45.91760007275046     28.98560013404542
  C         -12.27299998961803    -46.41109996626248     27.54839996827922
  C         -13.75769997044394    -45.14649995788048     29.14559994060128
  H          -9.30049378172884    -46.79646784543713     31.52400588867896
  H          -9.95065617410598    -45.15793770314054     31.64810671017712
  H          -5.60817942395109    -41.89925568479322     31.71215511451205
  H          -5.40620832185654    -43.64388476801741     31.88656245087361
  H          -6.31088956566314    -42.74411448343232     33.15766550084573
  H         -10.41919998081768    -41.46750000526258     35.12829997354747
  H         -11.08020000492837    -42.95590000328224     34.49520001184581
  H         -10.92560000506657    -41.55790002012682     33.45839998862700
  H          -8.52623740559109    -43.29766383190280     34.34171101678739
  H          -8.32158765091138    -41.59106482614551     33.86231642452633
  H         -10.32060000634458    -47.00060002595858     29.34210000095578
  H          -9.37715738383643    -45.65335121750578     28.83787105776460
  H          -9.85273603451470    -43.86393435518076     28.91434676755514
  H         -12.14419999438902    -42.55260000061028     30.31029999551272
  H         -10.66580000495784    -41.81479998915104     29.74199999978599
  H         -10.60063343171106    -42.97902500602184     31.06976748890416
  H         -12.59540000530825    -43.24229999611670     27.86960000345526
  H         -11.37960001818806    -44.16730000716950     27.02140000329397
  H         -11.07940000463644    -42.49450000181016     27.42749999975083
  H         -12.47039998161110    -46.81719998789254     29.56419998056863
  H         -12.23240000004316    -45.57210000685794     26.88560000295164
  H         -13.10299999875450    -47.03320000793699     27.28580000684283
  H         -11.36629999907148    -46.97350000323658     27.46790000134051
  H         -13.71860000187159    -44.24930000054101     28.56390001140956
  H         -13.90230000602101    -44.89740001180985     30.17610000869246
  H         -14.57060000092574    -45.75510000328670     28.80830000300654
