70
Coordinates from ORCA-job scan_alkoxide E -2027.330658525165
  C          -4.69100012367617    -42.25599997457058     28.39500003422109
  O          -5.30691605264788    -41.90589262140217     29.53933507772598
  H          -5.23198765755426    -41.98221607319852     27.43764593289270
  H          -4.51035521390518    -43.36629180522084     28.26994706927166
  H          -3.69177091988345    -41.84497002762765     28.25113896077045
  C          -6.71100002070540    -48.52399997066695     27.04599997157730
  C          -6.23107231870090    -47.12046135008011     26.98705556082176
  N          -5.04539045665385    -46.75020841109104     26.39828240650053
  C          -6.89477048043350    -45.99150888394367     27.38052403918105
  C          -5.00521688848214    -45.43068853092297     26.42357539150762
  N          -6.11215584985140    -44.93315451306216     27.00192467952309
  H          -6.78286182296165    -48.94353954108472     26.02967440853359
  H          -7.71802170468054    -48.55647383802201     27.48485832025563
  H          -7.84008616240711    -45.87341087879837     27.89902603844669
  H          -4.19789345290383    -44.81056032008956     26.03620715133163
  H          -6.08516397902259    -49.20705502136609     27.62033902156491
  C          -3.81500001690918    -49.39800001640454     22.38700001830864
  C          -2.55675464401433    -49.04620785842496     23.18267681403161
  C          -2.88488619550469    -48.10302758280241     24.31320495409688
  O          -3.72860542471573    -48.62108064629080     25.17747704830522
  O          -2.45608015224291    -46.96610150413230     24.39121768620224
  H          -3.53479492078939    -49.85880840287338     21.42756910099036
  H          -4.40010298438194    -48.49508210700235     22.15289438782082
  H          -2.09691791807085    -49.95665062539989     23.59942225175111
  H          -1.81248879636185    -48.55337416389534     22.54250585163106
  H          -4.47029998390282    -50.10495998433442     22.89581298363023
  H          -4.13854360568563    -47.86835229286412     25.74751590597793
  C         -10.57015193862942    -43.72799787173788     28.15942897765492
  S          -9.74341064543264    -44.28624373152822     29.69706385931288
  P          -7.88151006345498    -43.24060680701558     29.53740438184684
  C          -6.69867520359886    -44.24725268472386     30.41733543258929
  O          -7.68852626676229    -42.92700999526914     28.07770771861311
  O          -8.05346278600896    -41.99043772063688     30.53077301128159
  C          -9.69268566002392    -40.24354507963239     30.38306545253588
  C          -8.27862618353612    -40.66423489179121     30.06014328206070
  C         -10.20398070260536    -44.61862533730893     26.96979396963638
  N         -10.63685158393220    -44.09870897623172     25.68388188440237
  C          -9.80964607409232    -42.95528611287995     25.26512594610618
  C         -10.63269912869459    -41.80086291382492     24.68542906265393
  C          -8.59559104174906    -43.28460884315502     24.38735806249227
  C         -11.05318664493920    -45.15498302143396     24.75882628028464
  C          -9.97011284793797    -46.18919495806973     24.39908586386610
  C         -11.74019181683631    -44.62111996684364     23.50463594793948
  H         -11.64967413967724    -43.76346245820258     28.36827397479755
  H         -10.30121221923323    -42.67796758433347     27.98309909028047
  H          -5.81387261092115    -43.57133059514280     30.36973452199447
  H          -6.53906654251424    -45.20897764819501     29.91530750864009
  H          -7.05135494329480    -44.40057405834375     31.44684139430639
  H          -9.83664399989769    -39.20172100040723     30.07924999885559
  H          -9.88783789170683    -40.32425479998280     31.46258401164251
  H         -10.42386657704143    -40.86813155595024     29.84938162242381
  H          -7.53671117744957    -40.02367405860203     30.55906822066704
  H          -8.07546715565255    -40.61775793874628     28.98000822607776
  H         -10.66358301731836    -45.60294200841481     27.14994401521504
  H          -9.11452967311125    -44.77016317040393     26.99211307736167
  H          -9.38105362316938    -42.57177808010199     26.20294080990709
  H         -11.02599295685428    -42.01917300228569     23.68186598787357
  H         -10.01307997753767    -40.89319401474909     24.60964196605491
  H         -11.48262196453177    -41.57698501430920     25.34786098867640
  H          -8.87996899161560    -43.64193304896057     23.38636600154908
  H          -7.95350998617380    -44.04514103982525     24.85754199529850
  H          -7.98429898143247    -42.37829701876074     24.25218600356976
  H         -11.82860788400591    -45.71310802763409     25.31469994033306
  H          -9.21773100762949    -45.78603301273778     23.70718502678741
  H         -10.43492901951013    -47.06350201117892     23.91615302405062
  H          -9.44411300451571    -46.54884200406578     25.29732201391055
  H         -11.04179501514228    -44.09492098741804     22.83645898995307
  H         -12.55418600922075    -43.92886601830438     23.76568701280850
  H         -12.17263200233272    -45.45907000353850     22.93723299724604
  H          -6.34988974889873    -43.95779236185368     27.22483449051677
