70
Coordinates from ORCA-job scan_alkoxide E -2027.322557592119
  C          -4.69100011311607    -42.25599997462407     28.39500003229286
  O          -5.28295199984531    -41.92476496908281     29.55738660253906
  H          -5.24324473354176    -41.95286891987401     27.45071578640729
  H          -4.53446699429449    -43.36986414665016     28.24129157843636
  H          -3.69177092692213    -41.84497002746308     28.25113896260415
  C          -6.71100001713125    -48.52399997359552     27.04599997335263
  C          -6.02535669391860    -47.22996293109283     26.77058520873393
  N          -4.73209282551830    -47.16255321164272     26.30095443469272
  C          -6.48388047187913    -45.94302185522166     26.85346907363855
  C          -4.41347243864876    -45.89419042736498     26.09874493723774
  N          -5.45826067734574    -45.13222677235203     26.42569777658635
  H          -6.96847073945632    -49.03021278893832     26.10257060590823
  H          -7.64162993827367    -48.34810162126789     27.60074065879754
  H          -7.45079027090994    -45.54821103366940     27.14809230453696
  H          -3.45772661438467    -45.54764464349473     25.71297440180019
  H          -6.08516398214054    -49.20705501960495     27.62033901983707
  C          -3.81500001641629    -49.39800001594952     22.38700001818637
  C          -2.48171965245596    -49.21948404488320     23.11476849653659
  C          -2.68794067960429    -48.46497923847190     24.42097570392650
  O          -3.43974982704213    -49.04658988900405     25.27800259822711
  O          -2.20101269915753    -47.33537619887483     24.56638537158794
  H          -3.65619368518442    -49.77800939317723     21.36584856035059
  H          -4.34770092529360    -48.43753895674287     22.30078094517760
  H          -2.03278383924752    -50.20362008999713     23.32766038554663
  H          -1.77330495295006    -48.65136744249805     22.49444266160490
  H          -4.47029998435628    -50.10495998476540     22.89581298384536
  H          -4.08953666408828    -48.04526025628051     25.95598944848673
  C         -10.76116236605508    -43.71325722677513     28.13624563641468
  S          -9.99842516778975    -44.17559161675686     29.73042498814288
  P          -8.12804226946309    -43.15576766888353     29.54770303414551
  C          -6.87349425837831    -44.27259177366892     30.14748704943547
  O          -8.02116724081064    -42.60156452657624     28.15993881433951
  O          -8.18176937587853    -42.06961194933906     30.74494422568092
  C          -9.72895323941458    -40.29433360731736     30.10943687725846
  C          -8.31222657585032    -40.66994248591982     30.49155514142911
  C         -10.25626395902650    -44.59354028851222     26.99246774139938
  N         -10.63685163308513    -44.09870898804751     25.68388189096535
  C          -9.80964605790338    -42.95528607584033     25.26512597759924
  C         -10.63269908725644    -41.80086293737911     24.68542900908361
  C          -8.59559104887491    -43.28460891071505     24.38735804313186
  C         -11.05318659719891    -45.15498298318883     24.75882624991111
  C          -9.97011285746622    -46.18919498881712     24.39908589122781
  C         -11.74019182005705    -44.62111999800385     23.50463594409429
  H         -11.84635982763188    -43.82821718269425     28.27566236928171
  H         -10.55753922056429    -42.65122526262900     27.94669056290563
  H          -5.98008060214835    -43.60024643040495     30.09365903257139
  H          -6.79561655566335    -45.15970466177185     29.50626092170723
  H          -7.11115003180956    -44.56581840078533     31.17986009753785
  H          -9.83664399988667    -39.20172100018357     30.07924999917550
  H         -10.44471594759837    -40.68832799250934     30.84643654800777
  H          -9.99107860361078    -40.69402959571746     29.11833186512921
  H          -8.02018885854685    -40.18109898887545     31.43235644166543
  H          -7.57487705682145    -40.38538435492513     29.72634044178275
  H         -10.66358301090019    -45.60294200829917     27.14994401358575
  H          -9.16111890348523    -44.68597212753969     27.10849873564776
  H          -9.38324386732838    -42.57473230443387     26.20557813117265
  H         -11.02599297052467    -42.01917300328000     23.68186599851223
  H         -10.01307998705960    -40.89319400987109     24.60964198693643
  H         -11.48262197781452    -41.57698500881019     25.34786099653308
  H          -8.87996899171454    -43.64193302753473     23.38636600134025
  H          -7.95350998547868    -44.04514102095190     24.85754200046470
  H          -7.98429897987959    -42.37829700897623     24.25218600430816
  H         -11.82860789012139    -45.71310803096310     25.31469994740642
  H          -9.21773100770348    -45.78603300881463     23.70718502075627
  H         -10.43492901701765    -47.06350200390850     23.91615301697551
  H          -9.44411300645014    -46.54884199998428     25.29732200932539
  H         -11.04179501805951    -44.09492098125197     22.83645899597279
  H         -12.55418601185627    -43.92886600956394     23.76568701368447
  H         -12.17263200360838    -45.45906999961191     22.93723299889109
  H          -5.46940075544630    -44.11528698270192     26.40754015134629
