88
Coordinates from ORCA-job scan_oxh E -2536.283813031323
  C          -4.33801310597403    -42.82924261603524     28.66442520867813
  O          -5.42113428240022    -42.62876436477508     29.61418567567971
  H          -4.69635435357155    -43.38106769832759     27.78026791557120
  H          -3.58826371773718    -43.46220901136559     29.16831789390734
  H          -6.26335757432705    -42.49717105529398     29.15497427502274
  H          -3.69177366907327    -41.84496705804233     28.25114181059988
  C          -6.35699344997435    -48.27915416363503     28.15544741335591
  C          -5.99949602885256    -47.09347719900672     27.31695033878367
  N          -5.06542796001450    -47.17918272016455     26.31763243730103
  C          -6.42384030244742    -45.78039163760045     27.30096099065500
  C          -4.96369022457905    -45.95647669514435     25.74963325965724
  N          -5.77053714696228    -45.07955043018425     26.31477364936096
  H          -7.43254040240130    -48.29265495403914     28.38463758483276
  H          -5.81610504898230    -48.27050184955272     29.11606352442114
  H          -7.14022350403321    -45.30719186780006     27.97418990149671
  H          -4.28456692801413    -45.75398701093025     24.92000219203651
  H          -6.08516401423933    -49.20705493505891     27.62033900927436
  C          -3.73321705568782    -50.87754105288494     23.16438220456730
  C          -4.14374184189586    -51.55000799524792     24.46511352543060
  C          -4.43007383737852    -50.55588073213270     25.60009541119759
  O          -3.84449895172439    -49.43835021345649     25.52723487612802
  O          -5.20932749320688    -50.92137062853593     26.50199825225551
  H          -3.65893178644792    -51.59581784489726     22.33325714759129
  H          -2.76182725373486    -50.37331094798540     23.26889013202168
  H          -5.04551267259917    -52.16817108532975     24.33182364001900
  H          -3.35615813326064    -52.24072639513238     24.81575258650685
  H          -4.47030000940304    -50.10495997190595     22.89581303017947
  H          -4.53690624177893    -48.05432194935588     26.05544580374491
  N          -7.64428315492679    -40.21743769471517     31.39864819499124
  H          -7.17825853912762    -40.50063871407943     30.54434152293083
  H          -8.70372459130861    -39.91026472148457     31.33717611251499
  C          -6.95599975012287    -39.64699446781309     32.36700085144816
  O          -7.44199894150640    -39.39700111850621     33.47400111149479
  H          -5.87838504267673    -39.61832120085744     32.20568016059237
  N          -8.93089062347619    -39.06949095946861     29.08560705831909
  H          -8.18677253540433    -39.74348633086652     28.95811424696504
  H          -9.18698888590838    -38.51394084163945     28.25780005978448
  C          -9.62900011635856    -38.97500715454120     30.22999512835039
  O         -10.60900121131033    -38.24200122494882     30.40399992037121
  H          -9.28002053647185    -39.62624154744322     31.03137057290060
  N          -4.40211287781834    -39.49928261282663     28.44498229839258
  H          -5.23980469204734    -39.98519276969245     28.74498556810312
  H          -4.38481199646808    -38.47214600007531     28.42150100853955
  C          -3.26300089372789    -40.14000002755977     28.13900088541662
  O          -2.22300001843837    -39.55499998834428     27.82999997754358
  H          -3.27576227377976    -41.22927886542566     28.17658332065762
  C          -9.41044323938496    -45.87790482524262     31.04656986855857
  S          -7.64424516878202    -45.36546703595948     31.12252505651918
  P          -7.60693606058196    -43.23951598032866     31.30380810349501
  C          -6.08788248032429    -43.00891181830040     32.24381696253547
  O          -7.91195330518753    -42.56673944419162     29.99674190005032
  O          -8.86053232514298    -42.92747547665972     32.35394305324881
  C         -10.39394758519133    -42.12950878473639     34.22121709565660
  C          -8.95228862313215    -42.49300949971180     33.74838005939191
  C         -10.07981928778163    -45.97707923304144     29.65294703055649
  N         -11.30280003476231    -45.18899995753749     29.58020008031666
  C         -10.93760002339008    -43.83740001346265     29.09519996455358
  C         -11.09917712156213    -42.74435856651422     30.12835296962093
  C         -11.54410001026713    -43.40229999714977     27.75130000728547
  C         -12.44069998993126    -45.91759998795789     28.98559991531528
  C         -12.27300000366861    -46.41110000858919     27.54840001635503
  C         -13.75770001286383    -45.14650001180515     29.14560001612480
  H          -9.39862244379486    -46.85038952173147     31.55968029359905
  H          -9.98266539924657    -45.18622702634705     31.67949550765404
  H          -5.72937273899185    -41.97988132716648     32.15211913128257
  H          -5.32414969037113    -43.68049334487880     31.83701553195576
  H          -6.29458513008546    -43.26112773237624     33.29289026991513
  H         -10.41920004276514    -41.46749998223230     35.12830004437098
  H         -11.08019999422488    -42.95589999151847     34.49519997002957
  H         -10.92560001163872    -41.55789995022305     33.45840001330513
  H          -8.53507915175221    -43.28853070356624     34.38625225929339
  H          -8.32721547820556    -41.59411144446448     33.85565465469389
  H         -10.32059994938907    -47.00059994447660     29.34210001966394
  H          -9.34748759493714    -45.64868595313619     28.89283057338463
  H          -9.85261672374190    -43.86969252004305     28.91099013349950
  H         -12.14420000353686    -42.55259999636922     30.31029999631142
  H         -10.66579999783962    -41.81480003894607     29.74199998704277
  H         -10.60513737289984    -42.98435385438280     31.07382492716458
  H         -12.59539999470526    -43.24230000422237     27.86959999952890
  H         -11.37959999069726    -44.16729999811424     27.02139999695671
  H         -11.07939999777146    -42.49449999934711     27.42749999812781
  H         -12.47040000121845    -46.81720000112708     29.56420001737934
  H         -12.23240000045596    -45.57209999776532     26.88559999961800
  H         -13.10299999786636    -47.03319999937995     27.28579999965036
  H         -11.36629999955059    -46.97350000006562     27.46789999875972
  H         -13.71859999694086    -44.24930000062187     28.56389999968632
  H         -13.90229999889071    -44.89739999600477     30.17609999941123
  H         -14.57059999683184    -45.75509999943648     28.80830000053816
