88
Coordinates from ORCA-job scan2d_oxh
  C          -4.29717265666378    -42.63620156695364     29.21157211502257
  O          -5.68267864555988    -42.79077766298187     29.46579329424909
  H          -3.76850907809390    -43.61711882226918     29.10737351177459
  H          -3.78622372730678    -42.11724978677172     30.06725444884270
  H          -5.84189417216798    -44.18582278925220     28.33951645924344
  H          -3.69177537192157    -41.84496630498970     28.25114080696749
  C          -6.46908999714600    -48.57712628613903     26.79952767409993
  C          -6.03878812942570    -47.16246633131032     26.99718386748709
  N          -4.86085529941832    -46.64930025130867     26.49750971939933
  C          -6.60985633634361    -46.16776924078845     27.73898862315450
  C          -4.71736002120696    -45.40419014197447     26.93595608290820
  N          -5.76732477935785    -45.08337228089133     27.69185841410172
  H          -6.08932585229582    -48.97158106988623     25.84770746554604
  H          -7.56472181865128    -48.64874280599397     26.80337924760857
  H          -7.53044261187214    -46.15831234398237     28.30835268655856
  H          -3.87996462089233    -44.74821385195514     26.70779691799667
  H          -6.08516399306599    -49.20705504821366     27.62033901072952
  C          -3.36918309900512    -50.14036176138893     22.90527217947916
  C          -2.82914713795797    -50.32529042272949     24.31575846336148
  C          -3.16720533237501    -49.20889658944447     25.31157411216364
  O          -3.59143309913508    -48.11408763510155     24.81680980049540
  O          -3.01516885784041    -49.43563915652351     26.52054899174382
  H          -3.05589638823014    -50.96601613296555     22.24778715601478
  H          -3.00707780614498    -49.19856590394463     22.46768244042346
  H          -3.18419218315617    -51.27006912254419     24.75861855817893
  H          -1.72797869145200    -50.40735804874771     24.29868316727817
  H          -4.47029998291364    -50.10496004292678     22.89581296153242
  H          -4.20980295120485    -47.21995103996391     25.81156532862973
  N          -7.63516607026425    -40.16730894906954     31.37643030992461
  H          -7.17237637394936    -40.37718935547333     30.50017564358774
  H          -8.70372235241616    -39.91025505339776     31.33718065111450
  C          -6.95599991432125    -39.64699659441522     32.36700086724005
  O          -7.44199908161141    -39.39700092391192     33.47400098462932
  H          -5.87838501916096    -39.61832100247962     32.20568000920638
  N          -8.93260008438529    -39.07873297503185     29.08295563933546
  H          -8.31162032429802    -39.86638453819977     28.92450027130237
  H          -9.18698905316685    -38.51394108027873     28.25779995517649
  C          -9.62900001270404    -38.97500538452186     30.22999651987425
  O         -10.60900086925895    -38.24200086935652     30.40400003300854
  H          -9.28002252788637    -39.62625112301696     31.03136499458965
  N          -4.40126768620845    -39.50109290099061     28.44963679053540
  H          -5.25270580854362    -39.99768237062798     28.69092472899474
  H          -4.38481194019812    -38.47214598887569     28.42150113505818
  C          -3.26300141283462    -40.13999989996353     28.13900006220619
  O          -2.22300000478450    -39.55500003557409     27.82999985503394
  H          -3.27576055676000    -41.22927963077009     28.17658517506809
  C          -9.24423171618172    -45.74082262791234     30.87891158511873
  S          -7.50705354965875    -45.11053858398364     30.76428654053404
  P          -7.50864984063413    -42.98509470181666     31.01113148393550
  C          -6.05802842444411    -42.65125037560256     32.05326397864422
  O          -8.12010394083890    -42.25075398973809     29.85824611872482
  O          -8.80522032413658    -42.87002828349227     32.23704265609177
  C         -10.37592330121960    -42.13572469405448     34.20276153188323
  C          -8.92101064304084    -42.49502974599142     33.64457302342279
  C         -10.06242844586061    -45.95800455259995     29.57284341272813
  N         -11.30279974810440    -45.18900005884520     29.58019973876734
  C         -10.93760015275460    -43.83739992259602     29.09520017296372
  C         -11.10101297908334    -42.74337887643151     30.12664307191301
  C         -11.54409991375266    -43.40230005350190     27.75129992587935
  C         -12.44070013209016    -45.91759999757923     28.98560024362884
  C         -12.27299997434544    -46.41110000448452     27.54839996082597
  C         -13.75769997379258    -45.14649997270725     29.14559990061097
  H          -9.11491683183004    -46.68747913482854     31.42310344504370
  H          -9.78997170159009    -45.05693113423916     31.54213728399101
  H          -5.47295012511785    -41.83470923402457     31.62522012936988
  H          -5.43776207658971    -43.55536215878838     32.05009724118097
  H          -6.37532820754894    -42.42041784624422     33.07863517471061
  H         -10.41919998051278    -41.46750000487967     35.12829997298851
  H         -11.08020000631082    -42.95590000390532     34.49520001476352
  H         -10.92560000484128    -41.55790002260245     33.45839998868608
  H          -8.49963830717968    -43.30703406047255     34.26304415224858
  H          -8.30903636776991    -41.59514257123347     33.81543409101747
  H         -10.32060000978698    -47.00060001852851     29.34210002187553
  H          -9.43442699334912    -45.67367281019805     28.70701575861263
  H          -9.85285698415299    -43.86111753704925     28.91334437747634
  H         -12.14419999253643    -42.55260000395204     30.31029999287483
  H         -10.66579999395354    -41.81479996660822     29.74200000847706
  H         -10.58895094516205    -42.97588909996143     31.06506871446743
  H         -12.59540000374562    -43.24229997271237     27.86960001349509
  H         -11.37960002677721    -44.16730000143295     27.02140001272599
  H         -11.07940000465448    -42.49449999630080     27.42750000377284
  H         -12.47039998028987    -46.81720000325610     29.56419995936128
  H         -12.23240000348780    -45.57210000288830     26.88560000188695
  H         -13.10300000057505    -47.03320000204404     27.28580000531808
  H         -11.36630000133146    -46.97350000010837     27.46790000149412
  H         -13.71859999882865    -44.24929999691847     28.56390001971610
  H         -13.90230000346387    -44.89740001067954     30.17610001272778
  H         -14.57060000105960    -45.75510000077533     28.80830000572433
