88
Coordinates from ORCA-job scan2d_oxh E -2536.292965334997
  C          -4.08929463377919    -42.78522186884128     28.95276905258695
  O          -5.42961317247843    -42.76788339571101     29.47206520821780
  H          -3.88278283884444    -43.73211625918004     28.42797517608091
  H          -3.39804043733806    -42.72247224558318     29.81462362732242
  H          -5.95675162553016    -43.30949344584005     28.81724950831965
  H          -3.69177380240005    -41.84496715592859     28.25114168189055
  C          -6.91380279456663    -48.48252244096535     27.54992028534668
  C          -6.42151567510544    -47.07771649213802     27.39565092754937
  N          -5.53913596936466    -46.68566214213668     26.42090267881833
  C          -6.72416669405951    -45.92693507669732     28.08845283473516
  C          -5.34745173547562    -45.35556892788419     26.55737977009738
  N          -6.05309663327232    -44.85402063666668     27.55652356319542
  H          -7.53657171481813    -48.78006079881423     26.69077178992715
  H          -7.53247079952640    -48.56075609953686     28.45477576739348
  H          -7.35460909631323    -45.81872426611643     28.96576809182491
  H          -4.67582649493979    -44.78931371820062     25.91062930022141
  H          -6.08516400162206    -49.20705498866220     27.62033900088217
  C          -3.47014027548245    -50.46077289672967     23.18234814161272
  C          -3.40996888190013    -50.66030405877058     24.68753801333638
  C          -3.85472228938872    -49.44863066370624     25.52028656140413
  O          -4.30721192407872    -48.45449045456826     24.87888005487062
  O          -3.75971361099776    -49.53887914033763     26.75788532706413
  H          -3.25400477455524    -51.39185530512822     22.63609648577521
  H          -2.74930002056110    -49.69729506829347     22.85134268519402
  H          -4.05612026138481    -51.50065595207986     24.99600619647673
  H          -2.39573460703199    -50.93823716143436     25.02044057449817
  H          -4.47029999933119    -50.10496000045541     22.89581299870320
  H          -5.02993212709115    -47.35691493077240     25.76625468317809
  N          -7.64616328938799    -40.22606928379851     31.39960859839223
  H          -7.18168855366883    -40.54265130879821     30.55401885380151
  H          -8.70372294693918    -39.91025767538837     31.33717920682477
  C          -6.95600001497170    -39.64699604507616     32.36700097333786
  O          -7.44199900503155    -39.39700098587907     33.47400099631042
  H          -5.87838499911122    -39.61832101880076     32.20568000537155
  N          -8.93218356050047    -39.07027289052531     29.08525952297112
  H          -8.16587276782568    -39.72002077468214     28.96624325536804
  H          -9.18698900960771    -38.51394101097646     28.25779999375539
  C          -9.62900000457600    -38.97500592056338     30.22999606423504
  O         -10.60900098130943    -38.24200098086531     30.40400000603521
  H          -9.28002205531372    -39.62624835303983     31.03136676926223
  N          -4.39963331381942    -39.49839827292348     28.45270730654970
  H          -5.24939660990044    -39.98714547162551     28.71216894288558
  H          -4.38481199938361    -38.47214600014808     28.42150102084006
  C          -3.26300093101644    -40.14000003697395     28.13900088933130
  O          -2.22300002585653    -39.55499999236194     27.82999996369412
  H          -3.27576220061216    -41.22927883622306     28.17658341235451
  C          -9.57098128401145    -45.95495858843480     31.18888345832272
  S          -7.81791391400037    -45.48164080212634     31.50340360858226
  P          -7.68691131268397    -43.35219219130740     31.35970615872394
  C          -6.12211184514892    -43.09266713083304     32.20515190774226
  O          -7.97055764303687    -42.81844628063307     29.99675802035964
  O          -8.89769424682073    -42.84904020567738     32.36670587090229
  C         -10.40060809572273    -42.12725352717879     34.22991328375506
  C          -8.96942535168700    -42.51974619523794     33.77658660061903
  C         -10.10145068826154    -45.99137115102256     29.73092260552125
  N         -11.30280006066936    -45.18899999244008     29.58020005449380
  C         -10.93759995406730    -43.83740001373811     29.09519997393168
  C         -11.09939473973107    -42.74502907055964     30.12763240813653
  C         -11.54410002964608    -43.40229999311044     27.75130001523319
  C         -12.44069995614504    -45.91759999653471     28.98559994337707
  C         -12.27300001185350    -46.41109999955491     27.54840000760770
  C         -13.75770001088072    -45.14650000939150     29.14560001934998
  H          -9.62806167749020    -46.94349338726858     31.66829197802994
  H         -10.20730629158534    -45.27874075198585     31.77582158916076
  H          -5.80100241125236    -42.05354089749694     32.08485642773622
  H          -5.37469988113079    -43.73894337399636     31.72992460228381
  H          -6.24417055275324    -43.34650657554608     33.26683102161144
  H         -10.41920000335236    -41.46749999472622     35.12830000159796
  H         -11.08020000346796    -42.95589999962032     34.49520000639728
  H         -10.92560000059804    -41.55790000249272     33.45839999986055
  H          -8.60311931400931    -43.37843144108472     34.36335319634512
  H          -8.29787049448808    -41.66474277470817     33.95055898824786
  H         -10.32060000254578    -47.00060000269362     29.34210000013833
  H          -9.31098728080692    -45.62934020728951     29.05528906014651
  H          -9.85311927138931    -43.87196047630369     28.91196049161072
  H         -12.14420000224365    -42.55259999898552     30.31030000135008
  H         -10.66580000214616    -41.81479999846256     29.74200000073396
  H         -10.60706635812221    -42.98428106652949     31.07356866203256
  H         -12.59539999690331    -43.24230000463436     27.86959999730528
  H         -11.37959999083443    -44.16729999813808     27.02139999648209
  H         -11.07939999764273    -42.49449999987740     27.42749999894576
  H         -12.47040000849562    -46.81719999926533     29.56420000885986
  H         -12.23239999725498    -45.57209999933073     26.88559999989098
  H         -13.10299999859139    -47.03320000005865     27.28579999909629
  H         -11.36629999882935    -46.97350000019104     27.46789999987536
  H         -13.71859999947116    -44.24929999982170     28.56389999640584
  H         -13.90229999817899    -44.89739999639146     30.17609999721575
  H         -14.57059999909946    -45.75509999919752     28.80829999902264
