88
Coordinates from ORCA-job scan2d_oxh E -2536.189582832266
  C          -4.28947532448671    -42.62985753196714     29.21274566492544
  O          -5.68980187809498    -42.80437327098793     29.47098755687384
  H          -3.75602057219593    -43.60378230152681     29.12601565837475
  H          -3.80502627147665    -42.10070802753211     30.06975775731565
  H          -5.83675646579333    -44.03336386353830     28.45709088281129
  H          -3.69177532275271    -41.84496633783819     28.25114081513286
  C          -6.48391269578655    -48.58680478264817     26.79972654680053
  C          -6.05629053413115    -47.16755793986547     26.97951867054296
  N          -4.88849698442747    -46.65619795706878     26.46313769816815
  C          -6.61459588594083    -46.16692066684085     27.72803041412768
  C          -4.75137166822447    -45.40227934963763     26.89897599153949
  N          -5.78416114209966    -45.07600308045386     27.67076691581994
  H          -6.11640786556057    -48.98977717173666     25.84631573944590
  H          -7.57910045661838    -48.66535219873288     26.82062188223895
  H          -7.52490723659685    -46.16426568914878     28.31467030677683
  H          -3.91612369590216    -44.74757858427093     26.65726776423687
  H          -6.08516399269445    -49.20705504793921     27.62033900996801
  C          -3.36970748498327    -50.15179170230583     22.88502701828109
  C          -2.81048899751423    -50.32381215412246     24.28953050896081
  C          -3.15466559068662    -49.20389617716173     25.27993136932481
  O          -3.60615585965624    -48.12370951967436     24.77880524838903
  O          -2.97029814294319    -49.41168027012659     26.48804144801987
  H          -3.07422458654932    -50.98709378913408     22.23142915151880
  H          -3.00781318875269    -49.21739569881142     22.43166000165078
  H          -3.15133001991437    -51.26908374512051     24.74254649281003
  H          -1.70866676206213    -50.39382730205159     24.26149266266968
  H          -4.47029998291495    -50.10496004323374     22.89581296124996
  H          -4.24180004572677    -47.22271415032541     25.78026599152827
  N          -7.63529916298645    -40.16834442702274     31.37717926604321
  H          -7.17272904051760    -40.37696743876946     30.50071023556242
  H          -8.70372230887100    -39.91025474470936     31.33718083859874
  C          -6.95599992335597    -39.64699664345387     32.36700084780783
  O          -7.44199908441088    -39.39700092126422     33.47400098435094
  H          -5.87838501749061    -39.61832100503657     32.20568000661682
  N          -8.93287613579244    -39.07908247959552     29.08265000738330
  H          -8.31327333230583    -39.86743061977610     28.92373565296887
  H          -9.18698905999166    -38.51394109054063     28.25779995026333
  C          -9.62900001300016    -38.97500531554370     30.22999657498002
  O         -10.60900085475807    -38.24200085387429     30.40400003788436
  H          -9.28002257307383    -39.62625144291659     31.03136478362299
  N          -4.40112354703548    -39.50155887876582     28.44978739317192
  H          -5.25441516613181    -39.99612169633109     28.68800192291209
  H          -4.38481194183407    -38.47214598887320     28.42150113296630
  C          -3.26300139279871    -40.13999990695364     28.13900007525966
  O          -2.22300000757517    -39.55500003374195     27.82999985687550
  H          -3.27576061311590    -41.22927960023485     28.17658514820845
  C          -9.25100903852578    -45.74341330525749     30.88370783297792
  S          -7.51172735776025    -45.11972708110949     30.78032926010422
  P          -7.51523426083905    -42.99431629964412     31.01750566438785
  C          -6.06089503955446    -42.66004599790469     32.05404076234741
  O          -8.11724082339147    -42.26366762971749     29.85780477707596
  O          -8.80943049224489    -42.87165854002352     32.24095732713485
  C         -10.37654297477440    -42.13547633869066     34.20343520939846
  C          -8.92226537735948    -42.49526763789139     33.64776918478356
  C         -10.06309297855085    -45.95827604569606     29.57452260739785
  N         -11.30279974395842    -45.18900006304953     29.58019972853120
  C         -10.93760015689358    -43.83739991945348     29.09520017987874
  C         -11.10103717601440    -42.74340132099277     30.12674170745956
  C         -11.54409991032565    -43.40230005518428     27.75129992304216
  C         -12.44070013687938    -45.91759999747111     28.98560025251425
  C         -12.27299997298984    -46.41110000456887     27.54839995918966
  C         -13.75769997214740    -45.14649997070093     29.14559989629477
  H          -9.12585714719735    -46.69003601691908     31.42890495653751
  H          -9.79815965434994    -45.05798923396606     31.54406961393608
  H          -5.47747149341661    -41.83937434229988     31.63063393756268
  H          -5.43881153965766    -43.56316587213822     32.04854463612553
  H          -6.37819101738070    -42.43286792944490     33.07962837675077
  H         -10.41919997903819    -41.46750000490373     35.12829997104799
  H         -11.08020000708408    -42.95590000407626     34.49520001653918
  H         -10.92560000574324    -41.55790002408816     33.45839998780135
  H          -8.50123107581256    -43.30712457412157     34.26654570313596
  H          -8.30972363102967    -41.59542678539209     33.81710857256503
  H         -10.32060001300304    -47.00060002030449     29.34210002230295
  H          -9.43231628517514    -45.67262544340937     28.71188901876049
  H          -9.85295792668355    -43.86157137420221     28.91279846426874
  H         -12.14419999218828    -42.55260000421604     30.31029999275504
  H         -10.66579999473782    -41.81479996850430     29.74200000790384
  H         -10.58948171056858    -42.97587814386589     31.06537514603485
  H         -12.59540000409570    -43.24229997175439     27.86960001399890
  H         -11.37960002802774    -44.16730000154713     27.02140001331163
  H         -11.07940000492926    -42.49449999623569     27.42750000400145
  H         -12.47039997950340    -46.81720000316906     29.56419995799626
  H         -12.23240000378870    -45.57210000303590     26.88560000198204
  H         -13.10300000066613    -47.03320000214593     27.28580000553839
  H         -11.36630000146157    -46.97350000009742     27.46790000158710
  H         -13.71859999885559    -44.24929999703378     28.56390002058001
  H         -13.90230000381007    -44.89740001136987     30.17610001341219
  H         -14.57060000123450    -45.75510000093444     28.80830000600448
