88
Coordinates from ORCA-job scan_oxh E -2536.227756072472
  C          -4.43358976991385    -42.82622121735944     28.77147662061574
  O          -5.69801102689934    -42.63663895516068     29.57156536231137
  H          -4.67556835630803    -43.49336293814082     27.92961129936277
  H          -3.74908439700322    -43.35952163183058     29.44845791400234
  H          -6.39261877668469    -42.33583072092832     28.96807166989041
  H          -3.69177401311498    -41.84496680344092     28.25114196453157
  C          -6.27618912845871    -48.24675667602644     28.12721757992967
  C          -5.78531144925350    -47.12431889625814     27.27051990509465
  N          -4.72056226699572    -47.27477995309614     26.41989868105755
  C          -6.18265350791336    -45.81198445374590     27.12184963110301
  C          -4.52123564779978    -46.08677810459605     25.80623538504015
  N          -5.38388563275104    -45.17179777813877     26.20323793017224
  H          -7.35199007836815    -48.14337751597711     28.32820052711959
  H          -5.75610232161487    -48.26900286740541     29.09914299158084
  H          -6.98311387480391    -45.29921622217503     27.65745886538609
  H          -3.73168523396027    -45.93824734378709     25.06771515399788
  H          -6.08516401320938    -49.20705494685260     27.62033901203027
  C          -3.54658892541389    -50.65161073284034     23.14731733143167
  C          -3.73706795255914    -51.45446534563242     24.43004688561798
  C          -4.15332650810329    -50.55093382217994     25.59781574845617
  O          -3.42478233622378    -49.53298874974565     25.78820752869834
  O          -5.16721423567352    -50.85787395130049     26.25307869984278
  H          -3.28429165017200    -51.29305755872240     22.29215681901147
  H          -2.75025581271489    -49.90534874803133     23.28109643979481
  H          -4.49842465714184    -52.23847329152583     24.30024220354829
  H          -2.79278677939617    -51.95781820109769     24.70188992100972
  H          -4.47030000897586    -50.10495997233106     22.89581303104886
  H          -4.19211239780557    -48.17375924733328     26.24466883312141
  N          -7.63441754760788    -40.16927273212681     31.37788201714488
  H          -7.16566266560501    -40.34159980808128     30.49790347804655
  H          -8.70372475538050    -39.91026567069741     31.33717562292159
  C          -6.95599969665364    -39.64699426615377     32.36700087817108
  O          -7.44199893878314    -39.39700113187130     33.47400111870026
  H          -5.87838504726246    -39.61832122866149     32.20568017819370
  N          -8.93138211579584    -39.07596934671803     29.08374596889540
  H          -8.29547709869857    -39.85039740598425     28.92496778482289
  H          -9.18698886503097    -38.51394081012645     28.25780006983979
  C          -9.62900014268875    -38.97500736211413     30.22999498154149
  O         -10.60900124645033    -38.24200126951953     30.40399990202655
  H          -9.28002034774380    -39.62624058419373     31.03137113498780
  N          -4.40007863558529    -39.50246077661320     28.45106123627464
  H          -5.24946946512442    -39.98720253687402     28.71846549610897
  H          -4.38481199651846    -38.47214599891265     28.42150099301621
  C          -3.26300095196619    -40.13999999562667     28.13900095849348
  O          -2.22300000264131    -39.55499999569249     27.82999999756692
  H          -3.27576194734022    -41.22927909241918     28.17658312033136
  C          -9.22147925699985    -45.74819913032357     30.84188534859236
  S          -7.49199732226217    -45.11760129452517     30.67576963388509
  P          -7.49762121365602    -43.00812695882198     31.05056784151663
  C          -6.03577426221652    -42.76220128100624     32.10185246359088
  O          -8.03449047449861    -42.25117161327660     29.86239332834000
  O          -8.77987320899506    -42.88060984072197     32.22327266280065
  C         -10.37461668343796    -42.13676014209212     34.19967918904047
  C          -8.91627875585926    -42.48865966435893     33.64324037029340
  C         -10.06026193149282    -45.95797090113601     29.55261383003444
  N         -11.30280001348648    -45.18899996422620     29.58020006591040
  C         -10.93760002948108    -43.83740000215206     29.09519997807679
  C         -11.10040456092842    -42.74382324387200     30.12759285504868
  C         -11.54410000801511    -43.40230000752226     27.75129999791346
  C         -12.44069998928222    -45.91759996583821     28.98559991859684
  C         -12.27300000139524    -46.41110001919824     27.54840002054083
  C         -13.75770001707315    -45.14650001983718     29.14560001750839
  H          -9.07544676242801    -46.69819970013820     31.37539872827554
  H          -9.74978946400606    -45.06991170802311     31.52496578499410
  H          -5.54141412534445    -41.81576047298249     31.87423044603446
  H          -5.33198862330577    -43.57682648249348     31.89397435046317
  H          -6.34897607105483    -42.80093025515212     33.15252978146476
  H         -10.41920004570765    -41.46749998354381     35.12830004863492
  H         -11.08019999233382    -42.95589999162558     34.49519996456462
  H         -10.92560000726828    -41.55789994841491     33.45840001434490
  H          -8.48678830762422    -43.29754296426876     34.25649130190978
  H          -8.30936944781525    -41.58386477957996     33.79573335049157
  H         -10.32059993735971    -47.00059993732531     29.34210002416781
  H          -9.43567827871984    -45.68819886050046     28.67806608813522
  H          -9.85313205546823    -43.86380891975141     28.91075727132966
  H         -12.14420000404373    -42.55259999624202     30.31029999553634
  H         -10.66580000484637    -41.81480004834890     29.74199998076907
  H         -10.59429647927626    -42.98058768704824     31.06798492603814
  H         -12.59539999426194    -43.24229999990257     27.86960000124200
  H         -11.37959999162690    -44.16729999674119     27.02139999868135
  H         -11.07939999758027    -42.49449999830991     27.42749999909058
  H         -12.47040000224997    -46.81720000595139     29.56420001642394
  H         -12.23240000133928    -45.57209999624263     26.88559999893982
  H         -13.10299999831593    -47.03319999766753     27.28579999842476
  H         -11.36630000000705    -46.97349999928970     27.46789999836438
  H         -13.71859999604374    -44.24929999985009     28.56389999956699
  H         -13.90229999784379    -44.89739999453606     30.17609999878169
  H         -14.57059999667788    -45.75509999861898     28.80830000051801
