88
Coordinates from ORCA-job scan_oxh E -2536.310527024841
  C          -4.04347460242673    -42.84318037239067     28.82356048023933
  O          -5.32831097526488    -42.78237831742607     29.43298714862988
  H          -3.96463826166764    -43.70473970508472     28.14266479494746
  H          -3.27724180996441    -42.96680133913617     29.61236705233920
  H          -5.91578694676180    -43.31255521642366     28.85989491297582
  H          -3.69177377317510    -41.84496717103472     28.25114171031651
  C          -6.93717410040527    -48.51422915309842     27.70907124714915
  C          -6.50316874011687    -47.09991201978530     27.49543112984891
  N          -5.75060162799225    -46.70481635640424     26.41903864436999
  C          -6.73984700640934    -45.94881408314855     28.21261034478151
  C          -5.56794984642455    -45.37036547621472     26.52043963269471
  N          -6.15763337705614    -44.87101810062001     27.59236083918054
  H          -7.69054141408194    -48.81666735679953     26.96373157188588
  H          -7.38818087546832    -48.62267330460729     28.70528677135184
  H          -7.26806648138982    -45.84544434238083     29.15682130601696
  H          -4.98512183950199    -44.80095966638927     25.79497746848147
  H          -6.08516400137691    -49.20705498813196     27.62033900098783
  C          -3.50294325031001    -50.49476145463034     23.24096599194699
  C          -3.54111051764229    -50.66662017665372     24.74956504842299
  C          -4.01264120998654    -49.42857059692299     25.52678785040107
  O          -4.61065461400135    -48.53374842586351     24.85879265985761
  O          -3.80688932646509    -49.41080894021811     26.75456020296745
  H          -3.29494010881134    -51.44363261461120     22.72302606449444
  H          -2.73307901052025    -49.76715585432642     22.93923011435242
  H          -4.23511259866455    -51.48088982280131     25.02531264098936
  H          -2.56185354893823    -50.96734353635824     25.15604149639709
  H          -4.47029999962003    -50.10495999981748     22.89581299904987
  H          -5.28622501566085    -47.38229368788543     25.74208473534962
  N          -7.65158896738628    -40.25238866603877     31.41283958012977
  H          -7.18244144072376    -40.56117860483999     30.56717470709511
  H          -8.70372294117447    -39.91025766339760     31.33717920413444
  C          -6.95600001948542    -39.64699604404918     32.36700097390836
  O          -7.44199900439881    -39.39700098699610     33.47400099646016
  H          -5.87838499898633    -39.61832101981428     32.20568000546394
  N          -8.93116816725496    -39.06942950736030     29.08605513689138
  H          -8.15919562449191    -39.71317728479553     28.96901703727422
  H          -9.18698901000218    -38.51394101114727     28.25779999372616
  C          -9.62900000544443    -38.97500592022092     30.22999606432577
  O         -10.60900098076455    -38.24200098025225     30.40400000640500
  H          -9.28002206016700    -39.62624836130038     31.03136677129055
  N          -4.39972716052688    -39.49691108169633     28.45186765081922
  H          -5.24707577378002    -39.98598841651238     28.71744253100390
  H          -4.38481200146602    -38.47214600055695     28.42150101654908
  C          -3.26300091943535    -40.14000003965488     28.13900092088215
  O          -2.22300002590107    -39.55499999137803     27.82999996744456
  H          -3.27576223366455    -41.22927882348175     28.17658335079028
  C          -9.69344246643130    -46.05466067596890     31.26875461038007
  S          -7.94353177763042    -45.67165782550619     31.68374063979275
  P          -7.77130450019895    -43.55316160442441     31.51329379942112
  C          -6.20607611280827    -43.26400258505502     32.33701067936234
  O          -7.95712192749938    -43.04465323981744     30.12284084401559
  O          -8.97800646230477    -43.01161282425740     32.46998782836238
  C         -10.41326303676751    -42.12235949182981     34.24080412194952
  C          -8.99205781267239    -42.51458054400941     33.82259908839981
  C         -10.12262514877251    -46.00717696955186     29.78065613911360
  N         -11.30280006190602    -45.18899999378360     29.58020005559393
  C         -10.93759995386526    -43.83740001328994     29.09519997417576
  C         -11.09848134323730    -42.74515867318520     30.12845245643071
  C         -11.54410002963612    -43.40229999336452     27.75130001506738
  C         -12.44069995577892    -45.91759999424459     28.98559994142764
  C         -12.27300001133228    -46.41110000082223     27.54840000830380
  C         -13.75770001123823    -45.14650001039865     29.14560001988430
  H          -9.82630389881782    -47.05549837009841     31.70585164046747
  H         -10.32851563716058    -45.36624062943014     31.84286175233206
  H          -6.08732669473885    -42.18683159319461     32.50363164600428
  H          -5.41840889605897    -43.60021323760483     31.65112801637152
  H          -6.17463242588703    -43.80023756592306     33.29452426810327
  H         -10.41920000372267    -41.46749999438315     35.12830000191616
  H         -11.08020000368712    -42.95589999959611     34.49520000671895
  H         -10.92560000055457    -41.55790000258369     33.45839999992604
  H          -8.58464492133718    -43.28454851361149     34.49844156015740
  H          -8.34265753989349    -41.62648412731035     33.87003816919758
  H         -10.32060000302266    -47.00060000274907     29.34210000034170
  H          -9.28277301733440    -45.61912924673394     29.18561192263181
  H          -9.85277899884231    -43.87645916337309     28.91210103936820
  H         -12.14420000222661    -42.55259999901638     30.31030000135984
  H         -10.66580000238193    -41.81479999858343     29.74200000053807
  H         -10.60777631950198    -42.98686537497188     31.07443320233287
  H         -12.59539999691582    -43.24230000453796     27.86959999734266
  H         -11.37959999084991    -44.16729999808499     27.02139999651979
  H         -11.07939999764383    -42.49449999984481     27.42749999896882
  H         -12.47040000855200    -46.81719999956145     29.56420000915697
  H         -12.23239999741509    -45.57209999914678     26.88559999980046
  H         -13.10299999873753    -47.03319999976473     27.28579999893642
  H         -11.36629999893402    -46.97350000006806     27.46789999982842
  H         -13.71859999940180    -44.24929999970668     28.56389999632713
  H         -13.90229999807535    -44.89739999613252     30.17609999712509
  H         -14.57059999905992    -45.75509999910246     28.80829999900581
