88
Coordinates from ORCA-job scan_oxh E -2536.198396768296
  C          -4.47861337752358    -42.82944301252512     28.81795615261748
  O          -5.81094689890102    -42.63075395102764     29.56265608363541
  H          -4.69054340737549    -43.54010586998449     28.00535731537748
  H          -3.82875492342412    -43.31764852640384     29.55830131483832
  H          -6.45418501009586    -42.30446851340015     28.91485603932357
  H          -3.69177437887656    -41.84496660996044     28.25114157495268
  C          -6.25589071602478    -48.23616704751643     28.11258086509744
  C          -5.70520149024666    -47.13978249072384     27.25927188132525
  N          -4.60579238970645    -47.32005067947622     26.46010962498842
  C          -6.07176199325711    -45.82335103186721     27.07620790871378
  C          -4.35705092826300    -46.14304430112259     25.84284691199282
  N          -5.21942634108817    -45.20765001219661     26.18984383909325
  H          -7.33230019404731    -48.09370670057369     28.28364358149556
  H          -5.76262337644561    -48.26638606581695     29.09816605851125
  H          -6.88943696259873    -45.29409415811891     27.56746722668349
  H          -3.53234942434480    -46.01784560919153     25.13928353743298
  H          -6.08516401619334    -49.20705494932681     27.62033901881914
  C          -3.54640367957744    -50.65318277992385     23.14342608994115
  C          -3.73763186914935    -51.47650711743847     24.41365280007927
  C          -4.13127895855212    -50.58822478937277     25.60095567534799
  O          -3.36302943072784    -49.60743284224353     25.82791428344859
  O          -5.16677153595849    -50.86780395898325     26.23437069307096
  H          -3.28055494687617    -51.28147225991548     22.27963687666178
  H          -2.75075083545175    -49.90851336496284     23.29081145342339
  H          -4.51074837720226    -52.24740108960768     24.27516533959585
  H          -2.79741902144252    -51.99633739612560     24.66746850836841
  H          -4.47030001127950    -50.10495996711819     22.89581304122714
  H          -4.09666235151128    -48.23311658603397     26.30206814566690
  N          -7.63168941013398    -40.15403937993028     31.37183526860566
  H          -7.16484966901128    -40.29276574615546     30.48576548363709
  H          -8.70372472639689    -39.91026578749707     31.33717553597067
  C          -6.95599974133657    -39.64699418476111     32.36700094751013
  O          -7.44199894121017    -39.39700122275001     33.47400113233064
  H          -5.87838503977550    -39.61832121924519     32.20568015050548
  N          -8.93207878101513    -39.07897371619937     29.08262270146476
  H          -8.32844058316963    -39.87925681359481     28.91878843068044
  H          -9.18698886204380    -38.51394081591024     28.25780006961892
  C          -9.62900014044426    -38.97500738755807     30.22999495911575
  O         -10.60900125079283    -38.24200127675321     30.40399989819396
  H          -9.28002032377833    -39.62624046978291     31.03137120749490
  N          -4.39920213909405    -39.50424192607569     28.45332634911464
  H          -5.25452947091683    -39.98722111486771     28.70492623510482
  H          -4.38481198838803    -38.47214598969045     28.42150100916915
  C          -3.26300100813358    -40.13999997311666     28.13900079825456
  O          -2.22300001393149    -39.55500000213731     27.82999995685685
  H          -3.27576155301365    -41.22927927782946     28.17658365852931
  C          -9.17120367487171    -45.71218255269265     30.77845013465540
  S          -7.46037650348365    -45.05359751185795     30.52193560791784
  P          -7.44548226723088    -42.95474819712922     30.95361791934540
  C          -6.02948453406427    -42.70084353277357     32.07199304672294
  O          -8.08906013971244    -42.16583547543174     29.83665262895146
  O          -8.76574263956987    -42.89471596165801     32.19188708182834
  C         -10.36905469030951    -42.13929745517488     34.19341384827587
  C          -8.90507536752695    -42.49319732751112     33.60555930474292
  C         -10.05705098670016    -45.95338252240600     29.52515881498680
  N         -11.30279999168711    -45.18899997810620     29.58020009452926
  C         -10.93760003516721    -43.83739999513909     29.09520000501518
  C         -11.10055826261767    -42.74349767633065     30.12698578741957
  C         -11.54410000105323    -43.40230000903613     27.75129998916673
  C         -12.44069998634082    -45.91759995736522     28.98559989145138
  C         -12.27299999906384    -46.41110002649781     27.54840001957422
  C         -13.75770001648340    -45.14650001805330     29.14560000967263
  H          -8.98894280401733    -46.65224836663648     31.31803738761171
  H          -9.67450846213801    -45.02696694779002     31.47307655579741
  H          -5.49097027237753    -41.78379965650588     31.82237082469950
  H          -5.35118852829631    -43.55057708831654     31.92200989469995
  H          -6.37673841293107    -42.68307846645680     33.11097966782307
  H         -10.41920003709606    -41.46749999497096     35.12830003595189
  H         -11.08019997785429    -42.95589998502486     34.49519996969343
  H         -10.92560003098123    -41.55789992924864     33.45840000613110
  H          -8.46940874467799    -43.28999192756066     34.23247705796090
  H          -8.30859620444093    -41.58108946366779     33.76142305876319
  H         -10.32059992694755    -47.00059994301065     29.34210004072228
  H          -9.46558536799969    -45.69753439847079     28.62326423675099
  H          -9.85329276769297    -43.86186209745230     28.91078362818271
  H         -12.14420000297983    -42.55259999813826     30.31029999324769
  H         -10.66580000412497    -41.81480005391018     29.74199997882279
  H         -10.58691473483410    -42.97719008452759     31.06452197115372
  H         -12.59539999752374    -43.24229999850072     27.86960000040743
  H         -11.37959999507750    -44.16729999512940     27.02139999471209
  H         -11.07939999861942    -42.49449999727646     27.42749999627647
  H         -12.47040000654104    -46.81720000134657     29.56420001636274
  H         -12.23240000482539    -45.57209999573986     26.88559999778137
  H         -13.10299999867488    -47.03319999861920     27.28579999881002
  H         -11.36630000040966    -46.97349999720789     27.46789999895562
  H         -13.71859999796596    -44.24930000129393     28.56390000040596
  H         -13.90229999698700    -44.89739999368527     30.17610000086920
  H         -14.57059999800086    -45.75509999926005     28.80830000288974
