88
Coordinates from ORCA-job scan2d_oxh E -2536.209736056494
  C          -4.26036267478228    -42.66856176248293     29.17604838351710
  O          -5.69167806170685    -42.85537103922882     29.48947808354262
  H          -3.78182883364710    -43.65551890634810     29.04091884919167
  H          -3.80631020632804    -42.20840597120800     30.07516133159467
  H          -5.98240260891683    -43.65887892081152     28.64694955905861
  H          -3.69177532389653    -41.84496633063763     28.25114086257791
  C          -6.52537222368883    -48.58138086870125     26.82323150567516
  C          -6.12622097129992    -47.14640965799664     26.96119165892949
  N          -4.96030079636017    -46.62798609208497     26.45235891561091
  C          -6.73095328599712    -46.10527147083643     27.62146149821648
  C          -4.89765981524383    -45.33299193365256     26.81327969940067
  N          -5.95336555717321    -44.97651391904640     27.52930652516661
  H          -6.19593621207817    -48.98652167336015     25.85583268695660
  H          -7.61760562982192    -48.67939545823919     26.89044766213947
  H          -7.66675808463666    -46.11336316978930     28.16966015240650
  H          -4.07190788157269    -44.67751410839711     26.53647226216286
  H          -6.08516399267437    -49.20705504839138     27.62033901005690
  C          -3.37461493979114    -50.21506742037437     22.92869845770183
  C          -2.88061055403369    -50.40460064987763     24.35505785473272
  C          -3.19203989836699    -49.25468286724392     25.32480179924087
  O          -3.58763022610197    -48.16623512978469     24.80695998923699
  O          -3.02652651786857    -49.46196843057119     26.53864499506358
  H          -3.10206739440997    -51.07091833764103     22.29257238329869
  H          -2.94380446274701    -49.30678736700089     22.48213242550871
  H          -3.29523624698215    -51.32290560719866     24.80256120066878
  H          -1.78483732205784    -50.54255963953121     24.37045804884427
  H          -4.47029998307135    -50.10496004231770     22.89581296200846
  H          -4.29582297472023    -47.17904430108990     25.81976055848558
  N          -7.63605316232752    -40.17417312952612     31.37840687218841
  H          -7.17271275827736    -40.36745163921356     30.49902224226647
  H          -8.70372230220710    -39.91025471655066     31.33718084721716
  C          -6.95599992496143    -39.64699665494194     32.36700085116551
  O          -7.44199908484313    -39.39700091898750     33.47400098323393
  H          -5.87838501740212    -39.61832100315165     32.20568000529726
  N          -8.93283083667818    -39.07812211178068     29.08285656544402
  H          -8.30282418945310    -39.85740241152899     28.92310485189940
  H          -9.18698906032643    -38.51394109161664     28.25779995019422
  C          -9.62900001128163    -38.97500530914737     30.22999657832551
  O         -10.60900085404955    -38.24200085286621     30.40400003831496
  H          -9.28002257395504    -39.62625146107057     31.03136477445029
  N          -4.39902750274056    -39.50242396525818     28.45587138249919
  H          -5.26067853882448    -39.98986451730083     28.67722660989710
  H          -4.38481194316520    -38.47214598900156     28.42150112759696
  C          -3.26300139342587    -40.13999990413745     28.13900010694393
  O          -2.22300000453386    -39.55500003406970     27.82999986342753
  H          -3.27576061359760    -41.22927960899521     28.17658506775871
  C          -9.26226985077765    -45.75207659595146     30.89709464174316
  S          -7.51461262440173    -45.14783969273716     30.81515882183174
  P          -7.51851670096759    -43.02205626336029     31.03701697778258
  C          -6.04995451831679    -42.68770362698991     32.05162642194009
  O          -8.08501366016758    -42.30215771973514     29.85381408780017
  O          -8.80412305353636    -42.86236004518868     32.23632062985205
  C         -10.37637628447391    -42.13596118420242     34.20316654479858
  C          -8.92213989914815    -42.49998959582892     33.65088147550048
  C         -10.06473923330909    -45.95933776444090     29.58149181847083
  N         -11.30279974333642    -45.18900006327705     29.58019972791331
  C         -10.93760015710078    -43.83739991913292     29.09520018050874
  C         -11.10078753626022    -42.74365198445072     30.12702250989274
  C         -11.54409991027906    -43.40230005549183     27.75129992279573
  C         -12.44070013707785    -45.91759999744503     28.98560025321003
  C         -12.27299997311593    -46.41110000454646     27.54839995903923
  C         -13.75769997219299    -45.14649997071732     29.14559989594904
  H          -9.15252148907197    -46.69911288789413     31.44482245784889
  H          -9.80922908679939    -45.06127551365672     31.55223590131383
  H          -5.49591734523480    -41.83414023715787     31.65301300482073
  H          -5.40242958696435    -43.57186796581802     32.01370874482422
  H          -6.35868024772465    -42.49680335456828     33.08690932324834
  H         -10.41919997889825    -41.46750000491958     35.12829997088082
  H         -11.08020000704865    -42.95590000412071     34.49520001674834
  H         -10.92560000557043    -41.55790002445998     33.45839998765032
  H          -8.50917594858571    -43.32304575630969     34.25899858517101
  H          -8.30207689929253    -41.60723929193199     33.82759720319607
  H         -10.32060001321617    -47.00060002045299     29.34210002243022
  H          -9.42859539050252    -45.66913546222000     28.72618801513371
  H          -9.85298942908846    -43.86271553657483     28.91224100703508
  H         -12.14419999215279    -42.55260000414863     30.31029999270449
  H         -10.66580000046863    -41.81479997830066     29.74200000300365
  H         -10.59173720035742    -42.97746737728072     31.06654218245880
  H         -12.59540000405329    -43.24229997160680     27.86960001405677
  H         -11.37960002804970    -44.16730000151475     27.02140001335102
  H         -11.07940000491529    -42.49449999619457     27.42750000400606
  H         -12.47039997950317    -46.81720000317283     29.56419995787541
  H         -12.23240000373271    -45.57210000304693     26.88560000199735
  H         -13.10300000062235    -47.03320000217209     27.28580000557033
  H         -11.36630000143256    -46.97350000010915     27.46790000159317
  H         -13.71859999883153    -44.24929999699968     28.56390002066162
  H         -13.90230000379494    -44.89740001136511     30.17610001345423
  H         -14.57060000121510    -45.75510000092082     28.80830000603044
