88
Coordinates from ORCA-job scan_oxh2 E -2536.269531116625
  C          -4.15402386321530    -42.75242177470479     29.02628670930030
  O          -5.53243842624577    -42.77820986438191     29.49778338653058
  H          -3.88808496976841    -43.73281903934420     28.59923247044606
  H          -3.52132411733562    -42.59173902152143     29.91891365103353
  H          -6.00578593861925    -43.27817923790732     28.80411379303110
  H          -3.69177384764340    -41.84496706912699     28.25114162081408
  C          -6.85873433007646    -48.48014141879606     27.31880197237763
  C          -6.34854453412342    -47.07404490831209     27.25627601887623
  N          -5.34618151986065    -46.65914213503925     26.41613640709314
  C          -6.73571130036570    -45.94091730834388     27.93520775911347
  C          -5.17351290322101    -45.33440443807430     26.61309707799690
  N          -5.99876509309746    -44.85567504483649     27.52885527558166
  H          -7.23968846117662    -48.80677842677403     26.33801203295656
  H          -7.68796308939418    -48.53789188649737     28.03768285549208
  H          -7.47372227626433    -45.85435174766252     28.72483554709803
  H          -4.42704177738756    -44.75508293727314     26.06764736434545
  H          -6.08516401013434    -49.20705495643931     27.62033900559311
  C          -3.43042626467698    -50.39329429354235     23.11156810022124
  C          -3.24362577125041    -50.60676002664411     24.60487948143386
  C          -3.65856855820389    -49.41675079121219     25.48422467936676
  O          -4.03203835859189    -48.36961440470741     24.87703150202629
  O          -3.61000145837259    -49.56912435471916     26.71813330424132
  H          -3.19287455429002    -51.30178533135648     22.53639755357571
  H          -2.78809594383411    -49.57886103142591     22.74419703451091
  H          -3.82353675673005    -51.47732514477887     24.95583085033200
  H          -2.19291846936482    -50.84236096788845     24.84745604618985
  H          -4.47030001040652    -50.10495996946774     22.89581303296073
  H          -4.79016672492164    -47.30249465354758     25.77295678970032
  N          -7.64155005399911    -40.20921241644119     31.39097527179598
  H          -7.17350628410989    -40.48150237871734     30.53330293733624
  H          -8.70372389771138    -39.91026215072986     31.33717704587779
  C          -6.95599992841420    -39.64699517561991     32.36700106806183
  O          -7.44199894689744    -39.39700104969384     33.47400101810345
  H          -5.87838499221853    -39.61832107881365     32.20568005732932
  N          -8.93157622233384    -39.07057839356953     29.08503923695704
  H          -8.20708072514538    -39.76384633933426     28.94690921187214
  H          -9.18698892121739    -38.51394089509203     28.25780004623602
  C          -9.62900003509104    -38.97500677920296     30.22999540045355
  O         -10.60900114820044    -38.24200116047141     30.40399994719684
  H          -9.28002117676145    -39.62624390905538     31.03136935846470
  N          -4.39921921172669    -39.49999905028335     28.45585865941880
  H          -5.25302920440325    -39.98839238478468     28.70270220943399
  H          -4.38481199252028    -38.47214599817267     28.42150102520361
  C          -3.26300092654901    -40.14000003556743     28.13900078312395
  O          -2.22300002882091    -39.55499999353795     27.82999995820837
  H          -3.27576213099670    -41.22927886522236     28.17658359337474
  C          -9.45055096193689    -45.86761631028030     31.09121391398133
  S          -7.69036410784784    -45.34292597154666     31.28834148678117
  P          -7.60608321482423    -43.20388658563579     31.23001621620110
  C          -6.06666282989631    -42.93736912363730     32.13270866597119
  O          -8.00029582058527    -42.62115868837709     29.91258776324169
  O          -8.84325380100974    -42.79877424013620     32.30199207758009
  C         -10.38875608236642    -42.13132292785756     34.21856755246773
  C          -8.94737482799029    -42.51496330215592     33.72663214884818
  C         -10.08430465855816    -45.97766277101342     29.67605410355186
  N         -11.30280008022306    -45.18899995949759     29.58020005591619
  C         -10.93759995674764    -43.83740001842531     29.09519996517769
  C         -11.09973834135053    -42.74453314129214     30.12785882068594
  C         -11.54410002763064    -43.40229999060685     27.75130001620476
  C         -12.44069995402065    -45.91760001332670     28.98559995152563
  C         -12.27300001358052    -46.41109999415567     27.54840000540190
  C         -13.75770000937120    -45.14650000548252     29.14560001872916
  H          -9.44654308570830    -46.83986945716711     31.60578860449212
  H         -10.06322436535868    -45.18758773992572     31.69810487399507
  H          -5.65929730937699    -41.94664230273546     31.91480863689969
  H          -5.33841061072944    -43.68880082601370     31.80770255845308
  H          -6.27558913844937    -43.04722480117130     33.20553837090952
  H         -10.41920002488808    -41.46749998772708     35.12830002503328
  H         -11.08019999487419    -42.95589999412198     34.49519998474796
  H         -10.92560000451753    -41.55789997315448     33.45840000762453
  H          -8.58271622050035    -43.39040955479003     34.28989925479568
  H          -8.28360253470820    -41.66402386433786     33.94275228248249
  H         -10.32059996416874    -47.00059996849787     29.34210001343262
  H          -9.34940428668936    -45.64210181038800     28.92699527890209
  H          -9.85327502302447    -43.86858297058934     28.91187773515110
  H         -12.14420000378060    -42.55259999815878     30.31030000070486
  H         -10.66579998826979    -41.81480000850199     29.74200000212910
  H         -10.60002406987529    -42.98120225953169     31.07104966419329
  H         -12.59539999730289    -43.24230000703928     27.86959999655124
  H         -11.37959998965194    -44.16729999806773     27.02139999578276
  H         -11.07939999771789    -42.49450000026977     27.42749999879990
  H         -12.47040000803521    -46.81719999798574     29.56420000816822
  H         -12.23239999681607    -45.57209999998282     26.88560000016069
  H         -13.10299999838928    -47.03320000086426     27.28579999950867
  H         -11.36629999862979    -46.97350000055403     27.46790000007291
  H         -13.71859999978403    -44.24930000035157     28.56389999663574
  H         -13.90229999873454    -44.89739999738718     30.17609999760509
  H         -14.57059999928241    -45.75509999962615     28.80829999908422
