88
Coordinates from ORCA-job scan_oxh E -2536.287758029403
  C          -4.14243339028194    -42.81946448881563     28.87723667215132
  O          -5.43271253625152    -42.71883783475176     29.52903191953295
  H          -4.11532354971535    -43.70418832990622     28.22327293370605
  H          -3.39001711785789    -42.96082586158169     29.67380502955808
  H          -6.08848163245079    -43.05985838885258     28.90154513750847
  H          -3.69177364281196    -41.84496709643140     28.25114201969756
  C          -6.92184930601111    -48.48978608899469     27.67354512807675
  C          -6.48148052225640    -47.08942560584013     27.37817958805475
  N          -5.69726393591907    -46.75848824467568     26.30350287247804
  C          -6.76305593283630    -45.89124342123751     27.99827164545924
  C          -5.54185814102495    -45.41570826510481     26.31362163786887
  N          -6.17856215182879    -44.84811128284814     27.32255896732521
  H          -7.68528600130015    -48.82334712784609     26.95163187644297
  H          -7.37031983958366    -48.53711252109208     28.67589613602375
  H          -7.31964135166572    -45.73519116829207     28.91802783490349
  H          -4.94769434168925    -44.89116800623785     25.56355498244800
  H          -6.08516401164382    -49.20705495505766     27.62033900486822
  C          -3.54469821458534    -50.60832030081122     23.20803343267000
  C          -3.59157846604707    -50.81790989472417     24.71201937532325
  C          -4.00392014839333    -49.57054719091221     25.50833957421512
  O          -4.52688913425916    -48.62886549046937     24.84237604998805
  O          -3.83258637628198    -49.58846893607831     26.74097278234849
  H          -3.44055504958066    -51.55635132160705     22.65846668417106
  H          -2.70715636941241    -49.95362904224985     22.91965213648029
  H          -4.32962108855472    -51.59888170817830     24.96873392311253
  H          -2.63121641142901    -51.17919690828105     25.11444467152457
  H          -4.47030000809701    -50.10495997422987     22.89581302851914
  H          -5.21852625243363    -47.47138512981011     25.67379253674461
  N          -7.64462606400629    -40.22475032174216     31.39871335725066
  H          -7.17529236439499    -40.51447988994639     30.54657576566560
  H          -8.70372402525443    -39.91026177304221     31.33717757313806
  C          -6.95599978454009    -39.64699506581265     32.36700078584301
  O          -7.44199898751923    -39.39700106432549     33.47400109126578
  H          -5.87838504634219    -39.61832116139379     32.20568012800221
  N          -8.93114958793767    -39.06901925392646     29.08570847640404
  H          -8.17464180468300    -39.72909518103442     28.96089194755008
  H          -9.18698894271604    -38.51394091678785     28.25780002593270
  C          -9.62900009516719    -38.97500659710095     30.22999555869562
  O         -10.60900110373513    -38.24200110801583     30.40399995911886
  H          -9.28002110494594    -39.62624451660972     31.03136881143892
  N          -4.40014802963142    -39.49908198034439     28.45158929383064
  H          -5.24572183310507    -39.98924442350213     28.72221647906922
  H          -4.38481200575224    -38.47214600154476     28.42150098328533
  C          -3.26300088794238    -40.14000002107839     28.13900106538352
  O          -2.22300000687320    -39.55499998797070     27.83000000772124
  H          -3.27576233709599    -41.22927886958565     28.17658290868759
  C          -9.53213796067941    -45.92696649333419     31.15890513846934
  S          -7.77724022983593    -45.43528231566247     31.44239043954405
  P          -7.65547727436097    -43.30130827065828     31.33653553227490
  C          -6.10350024821184    -43.04990532878300     32.21248081250425
  O          -7.94398032756986    -42.75489985549144     29.97747803904505
  O          -8.87820285466222    -42.82281128251661     32.34702294419105
  C         -10.39812564055768    -42.12797199608420     34.22670328955684
  C          -8.96421252749660    -42.51345959957901     33.76413716532495
  C         -10.09439159103396    -45.98668024680585     29.71288696577809
  N         -11.30280001641060    -45.18899997658031     29.58020007271520
  C         -10.93760002164397    -43.83740001277338     29.09519996763091
  C         -11.09918570576399    -42.74496848652160     30.12798309166968
  C         -11.54410001226010    -43.40229999683913     27.75130000823977
  C         -12.44069999319506    -45.91759998198560     28.98559991341260
  C         -12.27300000292688    -46.41110000940422     27.54840001670376
  C         -13.75770001283579    -45.14650001225542     29.14560001597587
  H          -9.56898500849023    -46.91123393988224     31.64887138686949
  H         -10.16362255873968    -45.25209626024524     31.75254413303869
  H          -5.74246114440188    -42.02865153470425     32.06216163308541
  H          -5.36206076849841    -43.74472767249311     31.80161475504763
  H          -6.27516799936757    -43.25860045919715     33.27739764220917
  H         -10.41920002459763    -41.46749998857234     35.12830002332282
  H         -11.08020000105119    -42.95589999554492     34.49519998525539
  H         -10.92560001405334    -41.55789997054733     33.45840000564560
  H          -8.59708791559764    -43.37938067080071     34.33954515907091
  H          -8.29694119068607    -41.65881900608704     33.95419480783523
  H         -10.32059997447188    -47.00059997013147     29.34210000725936
  H          -9.32041827930805    -45.63561829835869     29.01199342382361
  H          -9.85315080637291    -43.87201901365690     28.91099929112245
  H         -12.14420000276748    -42.55259999718648     30.31029999693872
  H         -10.66579995784067    -41.81479998372020     29.74200002527325
  H         -10.60581837948560    -42.98411659518040     31.07358417936197
  H         -12.59539999451369    -43.24230000333233     27.86959999974357
  H         -11.37959999147716    -44.16729999851045     27.02139999716494
  H         -11.07939999776193    -42.49449999933694     27.42749999812096
  H         -12.47040000097664    -46.81720000134597     29.56420001746014
  H         -12.23240000068577    -45.57209999769926     26.88559999958573
  H         -13.10299999789806    -47.03319999934514     27.28579999963072
  H         -11.36629999960773    -46.97350000002634     27.46789999871624
  H         -13.71859999690407    -44.24930000055706     28.56389999968466
  H         -13.90229999886344    -44.89739999592191     30.17609999938593
  H         -14.57059999681990    -45.75509999939597     28.80830000053550
