88
Coordinates from ORCA-job scan_oxh2 E -2536.259116600219
  C          -4.18081328505639    -42.73528387436248     29.06251576770383
  O          -5.57638624377175    -42.78854615592323     29.50238438935374
  H          -3.86471245550566    -43.72763823427709     28.70089145439611
  H          -3.58664120196553    -42.50640373983720     29.96627123794166
  H          -6.02472256436810    -43.28830196778181     28.78981889747070
  H          -3.69177379314784    -41.84496710554115     28.25114163772926
  C          -6.80044769766783    -48.48828586699673     27.18338667306393
  C          -6.29312606903059    -47.07919485474465     27.17537991059152
  N          -5.23560928746287    -46.64714988067101     26.41451542553650
  C          -6.72856053317110    -45.95967176304129     27.84679594822049
  C          -5.07869470003118    -45.32635720993051     26.65010183252961
  N          -5.96531748640585    -44.86665334842854     27.51738993470509
  H          -7.01833195301530    -48.83279890512730     26.16033495096688
  H          -7.73320500212162    -48.53721987171271     27.76245120904531
  H          -7.52264198699787    -45.88846414358216     28.58165889688534
  H          -4.29908114260507    -44.73595182481326     26.16652733926323
  H          -6.08516400983300    -49.20705495704451     27.62033900487230
  C          -3.41488970429013    -50.36375303800530     23.07276667792142
  C          -3.16110984613740    -50.58234270123504     24.55579333735248
  C          -3.54699583480444    -49.40074553485786     25.46005337320626
  O          -3.87475167592615    -48.32632912233888     24.87429392858186
  O          -3.50895609861762    -49.58090692242760     26.69027211201312
  H          -3.17363195242721    -51.26099231115307     22.48170511452226
  H          -2.81123891735783    -49.52808270284211     22.68848092291418
  H          -3.71094779227097    -51.46280506709056     24.92864627253221
  H          -2.09641965749984    -50.80331217810797     24.74765215230453
  H          -4.47030000974837    -50.10495997165564     22.89581303077305
  H          -4.65693057664099    -47.27187385443959     25.77451729510542
  N          -7.64063187234664    -40.20159289361597     31.38823812452843
  H          -7.17736885286671    -40.45287301115793     30.52187598691735
  H          -8.70372384474917    -39.91026182753276     31.33717721589704
  C          -6.95599993433383    -39.64699524009661     32.36700105721205
  O          -7.44199895039416    -39.39700104345033     33.47400101629859
  H          -5.87838499259795    -39.61832107269686     32.20568005216820
  N          -8.93191710283651    -39.07322911607989     29.08419539770760
  H          -8.24357944488959    -39.80184315043596     28.93824045614303
  H          -9.18698892724302    -38.51394090482785     28.25780004220069
  C          -9.62900003547903    -38.97500671927962     30.22999544836391
  O         -10.60900113500420    -38.24200114623183     30.40399995178288
  H          -9.28002123523455    -39.62624423161493     31.03136916365057
  N          -4.39878988112738    -39.50078529264248     28.45664485184315
  H          -5.25555270977887    -39.98852887404132     28.69479960439428
  H          -4.38481199451039    -38.47214599853758     28.42150102249442
  C          -3.26300091103067    -40.14000004093425     28.13900080753779
  O          -2.22300003012561    -39.55499999197058     27.82999996044720
  H          -3.27576218973900    -41.22927883428998     28.17658354849864
  C          -9.38714353768678    -45.83375106933942     31.02957142320672
  S          -7.62790533232995    -45.27997481815540     31.15517323446629
  P          -7.58181967278284    -43.14345435216212     31.18407700363696
  C          -6.05663927843266    -42.85491266028409     32.11043293714009
  O          -8.01105626008425    -42.51835721232650     29.89929265112647
  O          -8.83494583035007    -42.80544090669980     32.28278710238633
  C         -10.38608491149458    -42.13246317812929     34.21482294459339
  C          -8.94208662651064    -42.51522916956588     33.70922873659221
  C         -10.07605603211720    -45.97134589538400     29.64322736012458
  N         -11.30280007488861    -45.18899996716122     29.58020003956516
  C         -10.93759996175100    -43.83740001274441     29.09519997515473
  C         -11.10013665660086    -42.74422478390062     30.12747409500599
  C         -11.54410002514756    -43.40229999577065     27.75130001155218
  C         -12.44069995845289    -45.91760000775830     28.98559996566552
  C         -12.27300001239632    -46.41109999688829     27.54840000337073
  C         -13.75770000933116    -45.14650000637673     29.14560001297030
  H          -9.34881716359425    -46.80160397310937     31.55049970107718
  H          -9.98617232636895    -45.15862996114191     31.65532791134070
  H          -5.60635065566223    -41.90315846840711     31.81876809324303
  H          -5.34811767443512    -43.65731491338361     31.87477149672049
  H          -6.29485068369485    -42.86520601881165     33.18252396923909
  H         -10.41920002335263    -41.46749998810860     35.12830002325234
  H         -11.08019999569443    -42.95589999453193     34.49519998662343
  H         -10.92560000485148    -41.55789997513968     33.45840000701303
  H          -8.57158454873001    -43.38640314091750     34.27502875831445
  H          -8.28355305060565    -41.65975085532379     33.92478635714581
  H         -10.32059996848156    -47.00059997024320     29.34210001392366
  H          -9.37753340386972    -45.65762931737320     28.84967973997771
  H          -9.85291515864351    -43.86657254371337     28.91235774636182
  H         -12.14420000336690    -42.55259999859805     30.31030000053827
  H         -10.66579998430966    -41.81480000269423     29.74200000577568
  H         -10.59963312186373    -42.97968860735008     31.07060883039533
  H         -12.59539999723795    -43.24230000463587     27.86959999754296
  H         -11.37959999072563    -44.16729999759370     27.02139999671224
  H         -11.07939999778391    -42.49449999969486     27.42749999910949
  H         -12.47040000754826    -46.81719999914175     29.56420000548534
  H         -12.23239999699415    -45.57209999977941     26.88560000021750
  H         -13.10299999845540    -47.03320000045888     27.28579999961157
  H         -11.36629999879635    -46.97350000030995     27.46790000019695
  H         -13.71859999946592    -44.24929999989926     28.56389999792742
  H         -13.90229999855442    -44.89739999737240     30.17609999835206
  H         -14.57059999924269    -45.75509999939280     28.80829999951198
