88
Coordinates from ORCA-job scan_oxh E -2536.213344942174
  C          -4.45038186313034    -42.83124651073891     28.79371298793119
  O          -5.74512174397351    -42.64082307167153     29.57614809105985
  H          -4.68742657541115    -43.50786023940713     27.95911040735073
  H          -3.78090376915393    -43.35197112883605     29.49385665851840
  H          -6.41842265651440    -42.31626958736239     28.96021249967267
  H          -3.69177420613918    -41.84496668125274     28.25114188086046
  C          -6.27778078759485    -48.24573409847020     28.12358945896194
  C          -5.77540451146292    -47.12758130814957     27.26824753774372
  N          -4.70134315453873    -47.28334578951490     26.43011983627255
  C          -6.16856241656448    -45.81543164044150     27.11029226212536
  C          -4.49196391882490    -46.09739759924150     25.81559165190714
  N          -5.35722292775080    -45.17939200114974     26.19987618656770
  H          -7.35512357881652    -48.14071466202869     28.31547046734413
  H          -5.76638029382269    -48.26721614447974     29.10012975575307
  H          -6.97420759105006    -45.29994139012309     27.63495316257855
  H          -3.69365815237064    -45.95272816803170     25.08578106878771
  H          -6.08516401142312    -49.20705495446538     27.62033901356397
  C          -3.54662271616875    -50.65128554924154     23.14825475224170
  C          -3.73881984605323    -51.45859474387470     24.42787458992892
  C          -4.14851580238988    -50.55960922126827     25.60163039807993
  O          -3.41426697377079    -49.54684500761488     25.79783031028666
  O          -5.16470011123039    -50.86370235106844     26.25472738022215
  H          -3.28205844581313    -51.28987563810689     22.29163265247684
  H          -2.75106997514130    -49.90486631929394     23.28596976477767
  H          -4.50369188584736    -52.23877484517092     24.29575719730070
  H          -2.79628737233423    -51.96739978630444     24.69565344111568
  H          -4.47030000930072    -50.10495997164927     22.89581303269705
  H          -4.17585667845106    -48.18482404824645     26.25931995112878
  N          -7.63283672848033    -40.16511538460746     31.37538740973368
  H          -7.16507095502492    -40.33042129614392     30.49383639764605
  H          -8.70372478136665    -39.91026590300487     31.33717548635025
  C          -6.95599968169731    -39.64699423100692     32.36700089011458
  O          -7.44199893891149    -39.39700113121909     33.47400111867796
  H          -5.87838504869625    -39.61832123112333     32.20568018147163
  N          -8.93322590136036    -39.07861934403136     29.08265716858161
  H          -8.30454661861123    -39.85940635111594     28.92477651636376
  H          -9.18698885908796    -38.51394080549446     28.25780007290444
  C          -9.62900014526697    -38.97500741673444     30.22999494068605
  O         -10.60900125580936    -38.24200127994175     30.40399989817035
  H          -9.28002031436649    -39.62624035139290     31.03137128556758
  N          -4.39944971551868    -39.50312534802617     28.45208857112511
  H          -5.25211120478524    -39.98621642318439     28.71186672828221
  H          -4.38481199279367    -38.47214599818707     28.42150099882164
  C          -3.26300098885783    -40.13999998261104     28.13900091012306
  O          -2.22300000061214    -39.55499999948583     27.82999998974433
  H          -3.27576175439871    -41.22927919817980     28.17658326210413
  C          -9.20067028574030    -45.72686803259527     30.81623409849757
  S          -7.47401667601134    -45.09436477683511     30.61226224483001
  P          -7.46569938574004    -42.98932971074932     31.00689911871539
  C          -6.02668256619661    -42.75321375884814     32.09334374460530
  O          -8.05116891781727    -42.21861000844002     29.84885734817750
  O          -8.77224038849069    -42.87915497417329     32.20475384124726
  C         -10.37162883199656    -42.13817099725460     34.19647020857815
  C          -8.91059179004475    -42.49703723431668     33.62520726878368
  C         -10.05797883232250    -45.95566386815809     29.54074116644054
  N         -11.30279999718337    -45.18899996001912     29.58020005935840
  C         -10.93760003671579    -43.83740000039955     29.09519998394338
  C         -11.10054006360379    -42.74365114859647     30.12722842283037
  C         -11.54410000356257    -43.40230000827915     27.75129999568048
  C         -12.44069999457393    -45.91759996889878     28.98559992580362
  C         -12.27300000040587    -46.41110001842031     27.54840001912153
  C         -13.75770001566362    -45.14650001775548     29.14560001387331
  H          -9.04913744591620    -46.66799970629199     31.36360599763841
  H          -9.71651273700784    -45.03532607045332     31.49530316386303
  H          -5.52891509746357    -41.80258918475822     31.89041923405799
  H          -5.31952065069777    -43.56419794802250     31.88216394682433
  H          -6.35853759672341    -42.80783378163559     33.13712032262759
  H         -10.41920004669418    -41.46749998320804     35.12830004958475
  H         -11.08019999151051    -42.95589999147395     34.49519996319647
  H         -10.92560000513018    -41.55789994844785     33.45840001447795
  H          -8.48842004071431    -43.31016464417162     34.23923215520153
  H          -8.30043642704181    -41.59670218712739     33.79178942624644
  H         -10.32059993416753    -47.00059993622081     29.34210002552920
  H          -9.44766264365972    -45.68851026705202     28.65511317743750
  H          -9.85322116270160    -43.86271585721637     28.91074084466776
  H         -12.14420000397851    -42.55259999614154     30.31029999508277
  H         -10.66580000426176    -41.81480004705843     29.74199998103211
  H         -10.59076482616174    -42.97829769235194     31.06635255174542
  H         -12.59539999461498    -43.24229999952109     27.86960000153182
  H         -11.37959999268103    -44.16729999700845     27.02139999898060
  H         -11.07939999785748    -42.49449999835553     27.42749999915488
  H         -12.47040000139465    -46.81720000555097     29.56420001529348
  H         -12.23240000148294    -45.57209999646037     26.88559999901687
  H         -13.10299999836031    -47.03319999785334     27.28579999867613
  H         -11.36630000005781    -46.97349999934131     27.46789999843797
  H         -13.71859999606140    -44.24929999986580     28.56390000031811
  H         -13.90229999817508    -44.89739999519504     30.17609999932036
  H         -14.57059999673821    -45.75509999877421     28.80830000072701
