88
Coordinates from ORCA-job scan_oxh2 E -2536.300735490945
  C          -4.07317013577799    -42.84297630293192     28.84735815721584
  O          -5.37241596784274    -42.81869384099563     29.45322189573485
  H          -3.96852392945597    -43.71053335786267     28.17697928075097
  H          -3.31927753711492    -42.94815761304651     29.65026280780891
  H          -5.94960212292966    -43.32609375850893     28.84977211356289
  H          -3.69177385429683    -41.84496709781599     28.25114182245541
  C          -6.92815320684380    -48.49806271713326     27.66369001833630
  C          -6.47795803168556    -47.08751878019710     27.44914578251198
  N          -5.69778804221460    -46.69761405419188     26.39055923831988
  C          -6.73845135484843    -45.93091965996533     28.14897979928091
  C          -5.52295513363674    -45.36154393368792     26.48643540084464
  N          -6.14431043630651    -44.85405486193734     27.53711008187615
  H          -7.65572879500783    -48.80262183204760     26.89398486199496
  H          -7.42009139215889    -48.58753741614542     28.64230135036610
  H          -7.28858469005878    -45.82570191879216     29.07967208260368
  H          -4.92650364766231    -44.79550768290613     25.76942868516380
  H          -6.08516400202700    -49.20705498795195     27.62033900107027
  C          -3.50419194986289    -50.51084432325153     23.22621015164686
  C          -3.52586743743819    -50.68488585266254     24.73515336364469
  C          -3.97715768540546    -49.44261181731571     25.51854142338865
  O          -4.54275765630051    -48.52701144966711     24.85038998474408
  O          -3.78774505513187    -49.44013262486585     26.74878609846751
  H          -3.31720873708261    -51.46155442917513     22.70363590900816
  H          -2.72794779118619    -49.79382792471094     22.91579464090288
  H          -4.22374435823985    -51.49300131974827     25.01857430387259
  H          -2.54461754729816    -50.99531953669790     25.12970831524921
  H          -4.47030000120086    -50.10495999631362     22.89581300350879
  H          -5.22531699269949    -47.37859245169091     25.72178964037365
  N          -7.64928643175570    -40.24340514378315     31.40784815560995
  H          -7.18128759600353    -40.53554093021981     30.55579367758406
  H          -8.70372305774832    -39.91025824552286     31.33717888429611
  C          -6.95599999398167    -39.64699594670053     32.36700100806762
  O          -7.44199900011713    -39.39700099482724     33.47400099825643
  H          -5.87838499918639    -39.61832102070485     32.20568000700447
  N          -8.93113309180986    -39.06926199691957     29.08583893676927
  H          -8.17011554684445    -39.72482317754179     28.96359284828182
  H          -9.18698899478196    -38.51394099216438     28.25780000317791
  C          -9.62900000627964    -38.97500605954384     30.22999595490705
  O         -10.60900100963420    -38.24200101027912     30.40399999693945
  H          -9.28002194763704    -39.62624774726964     31.03136714707786
  N          -4.39978659159188    -39.49772410666152     28.45158157984036
  H          -5.24896232173920    -39.98536920417218     28.71409020091649
  H          -4.38481200132636    -38.47214599995046     28.42150100712530
  C          -3.26300093883156    -40.14000002677485     28.13900094707773
  O          -2.22300001715423    -39.55499999408136     27.82999998289579
  H          -3.27576215712666    -41.22927888615791     28.17658321834920
  C          -9.61011558389472    -45.98781966847852     31.21502026735649
  S          -7.85772284218663    -45.54585362245317     31.56836455423544
  P          -7.70865849556919    -43.41909660951033     31.41907207842464
  C          -6.15174769663691    -43.15347058888330     32.27096055759777
  O          -7.94491555630450    -42.88976690416239     30.04571045846237
  O          -8.92179861999117    -42.90280244593415     32.40248984212801
  C         -10.40507041794373    -42.12577607987040     34.23392801300631
  C          -8.97708786072490    -42.51876943431251     33.79615079942295
  C         -10.10734298521635    -45.99615681529232     29.74616645687573
  N         -11.30280006319262    -45.18899998651021     29.58020005944391
  C         -10.93759995381936    -43.83740001683652     29.09519996795289
  C         -11.09902797292857    -42.74500944269588     30.12802511473087
  C         -11.54410002964316    -43.40229999075320     27.75130001704670
  C         -12.44069995619991    -45.91760000098695     28.98559994159361
  C         -12.27300001225693    -46.41109999760884     27.54840000783625
  C         -13.75770001044264    -45.14650000839953     29.14560002125050
  H          -9.69332662555129    -46.98122109440369     31.68039759375761
  H         -10.24664943615264    -45.30775108839349     31.79729338040818
  H          -5.95853441679010    -42.07905794590293     32.35797782523235
  H          -5.35734111550919    -43.60413035877141     31.66447168968866
  H          -6.20770796052080    -43.61111520921195     33.26779771587876
  H         -10.41920000419602    -41.46749999645888     35.12830000357473
  H         -11.08020000321993    -42.95589999985179     34.49520000372965
  H         -10.92560000040556    -41.55790000026007     33.45840000087664
  H          -8.59932793132365    -43.35024346533786     34.41400480506519
  H          -8.31146968523261    -41.65213071295896     33.93133154758593
  H         -10.32059999887460    -47.00059999957536     29.34209999931349
  H          -9.30042033460461    -45.62850533345924     29.09367428904083
  H          -9.85284741191969    -43.87336131194728     28.91165366494900
  H         -12.14420000238486    -42.55259999884536     30.31030000142462
  H         -10.66579999865462    -41.81479999862428     29.74200000177286
  H         -10.60761438774180    -42.98568013102619     31.07402776056151
  H         -12.59539999710389    -43.24230000566324     27.86959999691519
  H         -11.37959999069403    -44.16729999844974     27.02139999619611
  H         -11.07939999773004    -42.49450000016925     27.42749999883985
  H         -12.47040000815436    -46.81719999878878     29.56420000930981
  H         -12.23239999719457    -45.57209999950848     26.88559999988296
  H         -13.10299999859034    -47.03320000029994     27.28579999912599
  H         -11.36629999876563    -46.97350000032775     27.46789999984362
  H         -13.71859999966182    -44.24930000005354     28.56389999598636
  H         -13.90229999833807    -44.89739999661065     30.17609999700525
  H         -14.57059999914700    -45.75509999935838     28.80829999886924
