70
Coordinates from ORCA-job scan_alkoxide E -2027.330340849177
  C          -4.69100011990589    -42.25599997342454     28.39500003275428
  O          -5.35426422806897    -41.86996881489662     29.50154358586583
  H          -5.20768729070505    -42.03762314811383     27.41095851620825
  H          -4.49260208609722    -43.36920538907614     28.32501016672975
  H          -3.69177092190096    -41.84497002818532     28.25113896195730
  C          -6.71100001827284    -48.52399997120288     27.04599997319850
  C          -6.24684179480560    -47.11395332306421     26.99621613708846
  N          -5.07100234343672    -46.72010361841984     26.40280648453045
  C          -6.92548125413649    -45.99774159317469     27.40280356433243
  C          -5.05127905280813    -45.40008356363201     26.43805158302098
  N          -6.15978077539374    -44.92426596173364     27.03065072268786
  H          -6.77461654785695    -48.93873826674402     26.02718202604616
  H          -7.72013353258485    -48.56580345642372     27.47931865035504
  H          -7.86924837378988    -45.89481233843473     27.92946572292813
  H          -4.25759419246811    -44.76518886214961     26.04652324466067
  H          -6.08516398014549    -49.20705502129430     27.62033902114602
  C          -3.81500001666026    -49.39800001652642     22.38700001804152
  C          -2.56753651293768    -49.02446793997245     23.19005567462027
  C          -2.91206028682022    -48.05606447622222     24.29377845770724
  O          -3.72521735467360    -48.56827012881170     25.18958386110184
  O          -2.52344970749912    -46.90201402833624     24.32197985615834
  H          -3.52004957731194    -49.86901970349783     21.43697745168804
  H          -4.40489792584508    -48.50335224360390     22.13389437045138
  H          -2.10853455654634    -49.92408745951962     23.63001525290883
  H          -1.82007196217123    -48.54144781658098     22.54613276903466
  H          -4.47029998409116    -50.10495998430839     22.89581298378535
  H          -4.14692286095743    -47.80484365133908     25.74038775236986
  C         -10.54201473927857    -43.72256904571143     28.15770769306453
  S          -9.69003115905007    -44.25066973652517     29.69132344892271
  P          -7.82926550838965    -43.17905894183156     29.52707161399605
  C          -6.66889637148403    -44.22810896506014     30.39418115377046
  O          -7.68337344750263    -42.85019714226731     28.06536546239076
  O          -8.01585293271987    -41.96606859737381     30.56157987521366
  C          -9.69810645591716    -40.27991194335063     30.21074991739760
  C          -8.22481895443750    -40.61632917546149     30.15643298133202
  C         -10.19559038301016    -44.62147984043673     26.96779233337987
  N         -10.63685173201218    -44.09870888827065     25.68388204126677
  C          -9.80964603015798    -42.95528621605856     25.26512572948272
  C         -10.63269919631900    -41.80086288246136     24.68542924282583
  C          -8.59559100915942    -43.28460880457729     24.38735815343921
  C         -11.05318647667602    -45.15498307480658     24.75882614436406
  C          -9.97011287070524    -46.18919494729688     24.39908590683975
  C         -11.74019187400791    -44.62111995491556     23.50463599225464
  H         -11.61844194023146    -43.75767883127238     28.38218313333786
  H         -10.27973671682162    -42.67451714502124     27.96255048446542
  H          -5.76801026955171    -43.58394290057606     30.39010046177012
  H          -6.52185080845589    -45.18406357104627     29.87832590881774
  H          -7.05182218276719    -44.39916020763052     31.41030269809810
  H          -9.83664399974194    -39.20172100030238     30.07924999952964
  H         -10.11993302364815    -40.56390283779196     31.18622831590191
  H         -10.25926212817099    -40.80270508023383     29.42221325560057
  H          -7.64752980047245    -39.99737569768216     30.85862980012322
  H          -7.79371282111723    -40.46629501411825     29.15593180147176
  H         -10.66358300025228    -45.60294201982897     27.14994400052123
  H          -9.10661533149018    -44.78339409906686     26.97484511235284
  H          -9.38030737684297    -42.57148922102276     26.20231512798246
  H         -11.02599292842121    -42.01917299663160     23.68186594625649
  H         -10.01307996659615    -40.89319402283472     24.60964192447183
  H         -11.48262195014684    -41.57698501863148     25.34786096416944
  H          -8.87996899856901    -43.64193305157119     23.38636598973294
  H          -7.95350999638155    -44.04514104659987     24.85754198124033
  H          -7.98429898280361    -42.37829702185525     24.25218599701242
  H         -11.82860790807814    -45.71310801012886     25.31469996616710
  H          -9.21773101045758    -45.78603301325692     23.70718501839962
  H         -10.43492901831237    -47.06350201160355     23.91615301771874
  H          -9.44411300311477    -46.54884200579913     25.29732201005573
  H         -11.04179500630461    -44.09492099754979     22.83645898202560
  H         -12.55418600102321    -43.92886601477377     23.76568700570376
  H         -12.17263199978220    -45.45907000530294     22.93723299563879
  H          -6.42347086699486    -43.94987185743791     27.23561579621891
