88
Coordinates from ORCA-job scan_oxh E -2536.253731367871
  C          -4.38572844316889    -42.82779649905167     28.72857829786822
  O          -5.58337842439329    -42.64139870468237     29.58626288893229
  H          -4.66896267991511    -43.45451818742259     27.86757750639932
  H          -3.67242142009993    -43.39875370456214     29.34379531564208
  H          -6.33250088138723    -42.38344787458009     29.03093143853090
  H          -3.69177374430983    -41.84496696912161     28.25114210718272
  C          -6.28823209578069    -48.26183552521082     28.15205854605848
  C          -5.85381985481364    -47.11005197870149     27.30347820091811
  N          -4.83005269861821    -47.22705984675354     26.39926729030384
  C          -6.27293554704465    -45.79934568120179     27.20622663887993
  C          -4.67454699092951    -46.02290408533535     25.80489942259478
  N          -5.52806829882244    -45.12881290172212     26.26421019722205
  H          -7.35987897273053    -48.19323234784784     28.38752383979782
  H          -5.73846891799148    -48.28803700489927     29.10745788831716
  H          -7.05149876605464    -45.30870877431174     27.79278970689394
  H          -3.92183182764756    -45.84690820947110     25.03464909193733
  H          -6.08516401402863    -49.20705493966820     27.62033901044475
  C          -3.54664147088823    -50.64811190744600     23.15472337721284
  C          -3.73980952618109    -51.42972686961293     24.44957139331957
  C          -4.18246986826226    -50.51281316508371     25.59708347953801
  O          -3.49644827256468    -49.46033720597521     25.75320950189182
  O          -5.17458282040449    -50.84689313171238     26.27217368625251
  H          -3.28391976382013    -51.30299218645951     22.30995729658730
  H          -2.75095847981550    -49.89936407241878     23.27680616176837
  H          -4.48884023539720    -52.22671233294763     24.32719047703219
  H          -2.79260760527140    -51.91591005578483     24.74219780035044
  H          -4.47030000906252    -50.10495997237935     22.89581303075424
  H          -4.29017438694790    -48.11303285484546     26.19529017888661
  N          -7.63841866910316    -40.18855098752357     31.38614812767115
  H          -7.16985082020888    -40.40763871523716     30.51575111747222
  H          -8.70372467920823    -39.91026512524665     31.33717593991185
  C          -6.95599972120753    -39.64699436351476     32.36700084385986
  O          -7.44199894023917    -39.39700112959684     33.47400111806679
  H          -5.87838504489860    -39.61832121908067     32.20568017077689
  N          -8.92995075184143    -39.07150855415168     29.08517295470052
  H          -8.25257486514218    -39.81010484756153     28.93553997565809
  H          -9.18698887934631    -38.51394082408360     28.25780006228415
  C          -9.62900013346765    -38.97500722929770     30.22999507951555
  O         -10.60900122377152    -38.24200124352571     30.40399991175309
  H          -9.28002043695519    -39.62624114794723     31.03137077861003
  N          -4.40091621275639    -39.50093457485312     28.44884153272761
  H          -5.24480652788678    -39.98633674777206     28.73169171376488
  H          -4.38481200316930    -38.47214600018854     28.42150097901309
  C          -3.26300089867562    -40.14000001149886     28.13900105489224
  O          -2.22300000306392    -39.55499999056916     27.83000001460807
  H          -3.27576221932460    -41.22927895033031     28.17658286715365
  C          -9.28999055498184    -45.79735148336867     30.92072129435100
  S          -7.54216169484917    -45.21105850447310     30.85615810916772
  P          -7.54190623437509    -43.09287017655824     31.15082380642439
  C          -6.05008590456089    -42.85988318580883     32.14933995037927
  O          -7.98252243025931    -42.36863047568961     29.90994563438203
  O          -8.80715777620914    -42.88994429149101     32.27306139722926
  C         -10.38149978373428    -42.13397728795581     34.20807799375652
  C          -8.92908726736034    -42.48828990987786     33.68614978826183
  C         -10.06617277378629    -45.96464640102872     29.58911429097699
  N         -11.30280004150126    -45.18899996687274     29.58020008543601
  C         -10.93760001379017    -43.83740000773332     29.09519996310783
  C         -11.09996067242098    -42.74409221350928     30.12792995645468
  C         -11.54410001703607    -43.40230000385914     27.75130000370332
  C         -12.44069997682707    -45.91759996333261     28.98559989802608
  C         -12.27300000432151    -46.41110001845133     27.54840002407586
  C         -13.75770001970198    -45.14650002226493     29.14560002688507
  H          -9.19500070587820    -46.75800524668193     31.44695729554343
  H          -9.84023895435547    -45.11809994014402     31.58549816270594
  H          -5.61574380138125    -41.87148640751809     31.98425695111069
  H          -5.31367043286276    -43.61521919089559     31.85389911100616
  H          -6.32514434733913    -42.99851989105780     33.20325566878232
  H         -10.41920004324320    -41.46749998365087     35.12830004557723
  H         -11.08019999352141    -42.95589999170445     34.49519996745441
  H         -10.92560001119034    -41.55789994894757     33.45840001354809
  H          -8.50380692924616    -43.29539796560558     34.30414853583824
  H          -8.31517283770801    -41.58598808213168     33.82479883929242
  H         -10.32059994415338    -47.00059994057652     29.34210001937961
  H          -9.40099183902416    -45.67596910804669     28.75256239678831
  H          -9.85294742493994    -43.86625458249948     28.91067822244037
  H         -12.14420000422259    -42.55259999638007     30.31029999654818
  H         -10.66580000612353    -41.81480005173514     29.74199998024763
  H         -10.59950830264017    -42.98211714567474     31.07074486652142
  H         -12.59539999375869    -43.24230000150844     27.86960000035454
  H         -11.37959998950960    -44.16729999650805     27.02139999789835
  H         -11.07939999711324    -42.49449999852031     27.42749999895313
  H         -12.47040000427264    -46.81720000606946     29.56420001991868
  H         -12.23240000094142    -45.57209999605182     26.88559999882240
  H         -13.10299999804626    -47.03319999783478     27.28579999796688
  H         -11.36629999974897    -46.97349999942893     27.46789999818124
  H         -13.71859999615110    -44.24930000030994     28.56389999761453
  H         -13.90229999745648    -44.89739999363610     30.17609999751435
  H         -14.57059999664010    -45.75509999857280     28.80829999995856
