88
Coordinates from ORCA-job scan_oxh2 E -2536.278990797994
  C          -4.13399868341695    -42.75132500319062     29.01293257438467
  O          -5.50330137797392    -42.76075215257088     29.48430086246919
  H          -3.87202057179337    -43.72926541438226     28.57706886062587
  H          -3.49234728009272    -42.59858514093229     29.90080229704573
  H          -5.98692434543260    -43.26965171402688     28.80366802713733
  H          -3.69177377207466    -41.84496709553309     28.25114181056463
  C          -6.87514986561670    -48.48096279333824     27.36389393098720
  C          -6.36507475147991    -47.07597862842075     27.28819637773156
  N          -5.38121110291034    -46.66759957655244     26.42340563085772
  C          -6.73215570276115    -45.93982510984163     27.97251759948076
  C          -5.19805069364866    -45.34283068704460     26.61284342444338
  N          -6.00086978457719    -44.85915202432445     27.54544973760459
  H          -7.30173333333114    -48.79981507398422     26.39935010769074
  H          -7.66905835427692    -48.54616683247923     28.12085389640245
  H          -7.45375277891662    -45.84932307937311     28.77717561377243
  H          -4.46025203507832    -44.76818804639307     26.05102525328699
  H          -6.08516400945511    -49.20705495738466     27.62033900518523
  C          -3.43319354802991    -50.39632315669132     23.12025348987957
  C          -3.26314420721451    -50.61414499675646     24.61482020173647
  C          -3.69025273764883    -49.42754039068539     25.49274673007367
  O          -4.06694515288219    -48.38240045822975     24.88484472147142
  O          -3.64466620646973    -49.58051490402536     26.72696340037552
  H          -3.19224595299313    -51.30410921747529     22.54542348204009
  H          -2.78492016541024    -49.58285869098623     22.76119737404742
  H          -3.84660373541264    -51.48627698822190     24.95596228184897
  H          -2.21535223003505    -50.84982257453954     24.86958830727876
  H          -4.47030001003933    -50.10495997082228     22.89581303159639
  H          -4.83697580669052    -47.31753838847147     25.77790695331515
  N          -7.64269432985942    -40.21362904324909     31.39314656455494
  H          -7.17575861460603    -40.49647307954455     30.53776084765141
  H          -8.70372387000496    -39.91026195165950     31.33717716489268
  C          -6.95599993354511    -39.64699519286645     32.36700104707235
  O          -7.44199894791194    -39.39700105307925     33.47400102039083
  H          -5.87838499195917    -39.61832108344632     32.20568005784985
  N          -8.92946901447645    -39.06807809169403     29.08601800350802
  H          -8.20736819163475    -39.76362234931474     28.94743337983688
  H          -9.18698892636726    -38.51394090110769     28.25780004262846
  C          -9.62900003918412    -38.97500673600976     30.22999543707799
  O         -10.60900113784290    -38.24200115031492     30.40399995005996
  H          -9.28002120945978    -39.62624411856844     31.03136922242401
  N          -4.39913144831182    -39.49943131515596     28.45566317964488
  H          -5.25166475628180    -39.98860366803231     28.70520835114763
  H          -4.38481199981864    -38.47214599929033     28.42150100411270
  C          -3.26300090083836    -40.14000003595577     28.13900091871069
  O          -2.22300002205386    -39.55499999191738     27.82999998275052
  H          -3.27576222040097    -41.22927884802056     28.17658326570713
  C          -9.48787184853514    -45.90079929218854     31.12325774216418
  S          -7.73166740890475    -45.38495936830883     31.35572261117269
  P          -7.63814670518727    -43.25006717040329     31.27555103810740
  C          -6.08467481664540    -42.98785280244650     32.14978716360684
  O          -7.99082922339131    -42.67473631169386     29.94569423776384
  O          -8.86336869705852    -42.81580269172002     32.32898160662763
  C         -10.39348386238822    -42.12977038871923     34.22300228140649
  C          -8.95600403298010    -42.51577160492835     33.74761897889173
  C         -10.09021945527268    -45.98206693889156     29.69417435727520
  N         -11.30280008765711    -45.18899996082480     29.58020005911553
  C         -10.93759995109973    -43.83740001940821     29.09519996209381
  C         -11.09957082086551    -42.74472289824109     30.12794876298881
  C         -11.54410003219312    -43.40229999126755     27.75130001762065
  C         -12.44069994856506    -45.91760000872207     28.98559994606878
  C         -12.27300001511393    -46.41109999602419     27.54840000679788
  C         -13.75770001196807    -45.14650000915248     29.14560002167704
  H          -9.49601767146680    -46.88215947352316     31.62016418127141
  H         -10.11120689945946    -45.23018444653094     31.73010266663349
  H          -5.70025982152780    -41.98412066953721     31.94941247869662
  H          -5.35322568795345    -43.71693581415778     31.78325423130615
  H          -6.26183000324234    -43.13228219941500     33.22440994102949
  H         -10.41920002390078    -41.46749998809101     35.12830002398182
  H         -11.08019999555600    -42.95589999438416     34.49519998583654
  H         -10.92560000498022    -41.55789997415170     33.45840000728552
  H          -8.59136928400385    -43.38489325703161     34.32044260265497
  H          -8.28998433195672    -41.66305629339134     33.94981813001431
  H         -10.32059996718582    -47.00059997013425     29.34210001188708
  H          -9.33767923383477    -45.63821247442564     28.96736547817854
  H          -9.85318784725479    -43.87008983988621     28.91207901229808
  H         -12.14420000391871    -42.55259999817800     30.31030000096506
  H         -10.66579998550614    -41.81480000456629     29.74200000494665
  H         -10.60275968888191    -42.98271965601585     31.07220187251768
  H         -12.59539999670207    -43.24230000685515     27.86959999645096
  H         -11.37959998847071    -44.16729999758920     27.02139999553901
  H         -11.07939999732606    -42.49450000000217     27.42749999869514
  H         -12.47040000910641    -46.81719999885165     29.56420000868313
  H         -12.23239999638560    -45.57209999958157     26.88560000002339
  H         -13.10299999828831    -47.03320000038118     27.28579999919074
  H         -11.36629999851337    -46.97350000039939     27.46789999999464
  H         -13.71859999951595    -44.24929999989827     28.56389999614933
  H         -13.90229999809448    -44.89739999632665     30.17609999703710
  H         -14.57059999899596    -45.75509999923263     28.80829999893611
