88
Coordinates from ORCA-job scan_oxh E -2536.265011507747
  C          -4.36319544092634    -42.83182306625086     28.70367360596799
  O          -5.52083282409754    -42.64755435256085     29.59834566554052
  H          -4.67752304393043    -43.42585812791722     27.83015476221055
  H          -3.63566735274572    -43.42958392470546     29.27588232355027
  H          -6.30273366630493    -42.41819718896173     29.07643687143377
  H          -3.69177396052039    -41.84496685055830     28.25114191755437
  C          -6.30400401947972    -48.27423170742262     28.16892458481509
  C          -5.90517774039519    -47.10128265480873     27.33117405412216
  N          -4.91093549985116    -47.19730221348627     26.39233291245007
  C          -6.33620802678705    -45.79197318087216     27.26746620604582
  C          -4.78288872273099    -45.98379262365314     25.81102149380447
  N          -5.62807177081927    -45.10324281405871     26.31032234411221
  H          -7.37439867297841    -48.23508534980431     28.41685163361514
  H          -5.74405583059134    -48.30096369601073     29.11832924261771
  H          -7.09393056038147    -45.31091620445059     27.88855619469579
  H          -4.05574664928309    -45.79055579775962     25.02064856733021
  H          -6.08516401338953    -49.20705494691843     27.62033901047810
  C          -3.54910486327691    -50.65086825531176     23.15724157730572
  C          -3.74548816415346    -51.41490765507326     24.46192095773674
  C          -4.20681423306920    -50.48678359313305     25.59303207252125
  O          -3.55592134576021    -49.40852728365594     25.71798443519924
  O          -5.17874214201188    -50.84044278127833     26.28740213192805
  H          -3.29226355228348    -51.31743292003226     22.31987658495883
  H          -2.74929239721518    -49.90490386139768     23.26813842741385
  H          -4.48657880315332    -52.22024010438718     24.34590990460906
  H          -2.79734019119434    -51.88931485568238     24.77065292495631
  H          -4.47030000896764    -50.10495997258517     22.89581303066176
  H          -4.35998175497387    -48.07275774600253     26.17320987926385
  N          -7.64089307414801    -40.20104888922148     31.39112659494767
  H          -7.17270953652472    -40.44117867035364     30.52560270688002
  H          -8.70372466237393    -39.91026514956984     31.33717590055230
  C          -6.95599971896169    -39.64699438454652     32.36700085990181
  O          -7.44199894207821    -39.39700112184448     33.47400111393747
  H          -5.87838504487207    -39.61832121020351     32.20568017005839
  N          -8.93062248911171    -39.07105800597029     29.08520111506550
  H          -8.23157473134075    -39.78969428618586     28.94158842721246
  H          -9.18698887679278    -38.51394082956136     28.25780006365636
  C          -9.62900012848541    -38.97500724204826     30.22999506707940
  O         -10.60900122536198    -38.24200124305808     30.40399991260357
  H          -9.28002044650870    -39.62624111963461     31.03137081409535
  N          -4.40129042179412    -39.50020967633408     28.44757122188890
  H          -5.24324662355286    -39.98558051919179     28.73608939594822
  H          -4.38481199527772    -38.47214599886325     28.42150099850532
  C          -3.26300094454978    -40.14000000066256     28.13900092506410
  O          -2.22300000635999    -39.55499999481518     27.82999999116277
  H          -3.27576199525535    -41.22927905341260     28.17658319386303
  C          -9.32923412073951    -45.82364296594898     30.96305434110732
  S          -7.57281966569716    -45.26518849263426     30.95448098696246
  P          -7.55944369507642    -43.14244851820707     31.20301348492578
  C          -6.05791713918659    -42.91302512315828     32.18133990507803
  O          -7.94992383955385    -42.43779755895886     29.93568553745029
  O          -8.82089190033435    -42.89805818142671     32.29868946491671
  C         -10.38513650592262    -42.13259346635111     34.21221126164108
  C          -8.93560188390609    -42.48823941526218     33.70675430967600
  C         -10.06996503297634    -45.96857473632042     29.60953638815372
  N         -11.30280003127529    -45.18899995724310     29.58020009602886
  C         -10.93760001460937    -43.83740001261180     29.09519995701832
  C         -11.09960092858254    -42.74422273327714     30.12821370261869
  C         -11.54410001592233    -43.40229999941188     27.75130000731716
  C         -12.44069997596944    -45.91759997219400     28.98559988997640
  C         -12.27300000522928    -46.41110001518205     27.54840002415308
  C         -13.75770001918203    -45.14650002003923     29.14560002802900
  H          -9.26493789227446    -46.78845116217536     31.48652424901124
  H          -9.88880698163095    -45.14014291579964     31.61571506083408
  H          -5.64810827355606    -41.91008477137353     32.03991354868031
  H          -5.31078536311830    -43.64218269999535     31.85003001259682
  H          -6.31415448282276    -43.08989344900007     33.23455151402072
  H         -10.41920004280967    -41.46749998339237     35.12830004451943
  H         -11.08019999226080    -42.95589999157529     34.49519996688215
  H         -10.92560000942657    -41.55789994995033     33.45840001326319
  H          -8.51205944120717    -43.29221420616135     34.32992623110187
  H          -8.31910371454514    -41.58628370127025     33.83644690961754
  H         -10.32059993979652    -47.00059994168801     29.34210001908748
  H          -9.38282315115973    -45.67201530737579     28.79427930099337
  H          -9.85285311212027    -43.86759113361509     28.91059153973622
  H         -12.14420000446184    -42.55259999599065     30.31029999648967
  H         -10.66580000539085    -41.81480005097050     29.74199998079958
  H         -10.60101232577064    -42.98281695845299     31.07183498340938
  H         -12.59539999420598    -43.24230000355177     27.86959999954625
  H         -11.37959998922167    -44.16729999710097     27.02139999720931
  H         -11.07939999730338    -42.49449999901486     27.42749999857431
  H         -12.47040000427220    -46.81720000417094     29.56420002155923
  H         -12.23240000069591    -45.57209999641909     26.88559999890979
  H         -13.10299999791057    -47.03319999826121     27.28579999822529
  H         -11.36629999961504    -46.97349999961609     27.46789999826670
  H         -13.71859999631252    -44.24930000053615     28.56389999749452
  H         -13.90229999783094    -44.89739999396287     30.17609999756431
  H         -14.57059999654231    -45.75509999883326     28.80829999991091
