88
Coordinates from ORCA-job scan2d_oxh E -2536.245528062750
  C          -4.09218799528561    -42.71490919982645     29.04135290113700
  O          -5.42964094465655    -42.73610259623584     29.45399774117560
  H          -3.72913253632416    -43.69092319541696     28.63448010921594
  H          -3.39523184922302    -42.48275457107518     29.89117828454437
  H          -5.84076625260266    -43.94676948032500     28.49209229824035
  H          -3.69177391721384    -41.84496722684855     28.25114072409515
  C          -6.84763051644521    -48.54789476457617     27.17761674946864
  C          -6.40206348367350    -47.12435794994483     27.22043975629098
  N          -5.50755539050663    -46.58901148225052     26.32356448989928
  C          -6.69907383833532    -46.12467305974610     28.10853200645608
  C          -5.27347141502357    -45.32277426615821     26.66897009756095
  N          -5.99182297731122    -45.00840441190164     27.74209968841719
  H          -7.01772102997496    -48.87743400835942     26.14296355843210
  H          -7.78019143407625    -48.67026410351525     27.74423825269650
  H          -7.32239792528256    -46.12824115576358     28.99628837262601
  H          -4.58916056482860    -44.65335574359292     26.15087478104309
  H          -6.08516399608062    -49.20705502342061     27.62033900040529
  C          -3.38579567186147    -50.18846485102407     23.05639061922242
  C          -3.07781335735906    -50.19678638105309     24.54440741688111
  C          -3.63665211331642    -49.00932825393170     25.33605614837782
  O          -4.33088531815216    -48.16472400683011     24.68119185592624
  O          -3.39331210103791    -48.95289563200614     26.55062725966168
  H          -3.02749306657391    -51.10594187002121     22.56481303965660
  H          -2.91586424133987    -49.32807918581427     22.55611338213181
  H          -3.48312853387273    -51.10508785009576     25.02262047362878
  H          -1.99149792910752    -50.23084160090706     24.73262339809851
  H          -4.47029999344108    -50.10496002447502     22.89581297231996
  H          -4.97189667426672    -47.20020212592733     25.57389943381984
  N          -7.64561526558219    -40.22364532437055     31.39841989754010
  H          -7.18036715088034    -40.54273020826624     30.55384195066809
  H          -8.70372226447756    -39.91025467879162     31.33718065481002
  C          -6.95600010153803    -39.64699645057810     32.36700083359765
  O          -7.44199903822197    -39.39700100147758     33.47400100636290
  H          -5.87838499151361    -39.61832106725272     32.20568000655501
  N          -8.93093409393848    -39.06891087232764     29.08592156676004
  H          -8.16892846236401    -39.72369906687020     28.96575269931551
  H          -9.18698906261947    -38.51394108303502     28.25779996576563
  C          -9.62899997289415    -38.97500538568469     30.22999645900568
  O         -10.60900087941373    -38.24200086412097     30.40400004812204
  H          -9.28002266803444    -39.62625131855717     31.03136511344144
  N          -4.40140299098438    -39.49784310590496     28.44989527340414
  H          -5.24096355649114    -39.99849494618133     28.72125103929236
  H          -4.38481197251688    -38.47214599655815     28.42150112509744
  C          -3.26300101908016    -40.14000005068237     28.13900030753771
  O          -2.22300006710297    -39.55499999420321     27.82999984016124
  H          -3.27576202655072    -41.22927878208692     28.17658494285841
  C          -9.53583525861879    -45.94145680892967     31.16022809256437
  S          -7.78292810778019    -45.44572634550811     31.42281028160512
  P          -7.69633131955872    -43.30709816186604     31.33444424216131
  C          -6.12670505866481    -43.05470710844759     32.17239006922246
  O          -8.04308225366953    -42.74054789867753     30.00303043906839
  O          -8.90625923394780    -42.87378375795529     32.38376520982488
  C         -10.40079774668881    -42.12649870558708     34.23106780704607
  C          -8.96788012258509    -42.51220940739538     33.78099837927097
  C         -10.09712119910373    -45.98800651235992     29.71505991073614
  N         -11.30279997576621    -45.18900001089759     29.58020001868727
  C         -10.93760000628497    -43.83740000360482     29.09520000379271
  C         -11.10001218756356    -42.74464580752178     30.12761506576342
  C         -11.54409999919589    -43.40229999426580     27.75130000663187
  C         -12.44070000294518    -45.91759999764349     28.98559996382180
  C         -12.27300000036496    -46.41109999955280     27.54840000686792
  C         -13.75770000189558    -45.14649999947236     29.14560000452414
  H          -9.57114000147504    -46.92979680336133     31.64187554706431
  H         -10.16412897884043    -45.27015893455694     31.76134913097505
  H          -5.81063837555502    -42.01288796701563     32.07582668838231
  H          -5.38585739171216    -43.67489486766251     31.65682257279634
  H          -6.23667411658171    -43.33982337449157     33.22786480370430
  H         -10.41919998977063    -41.46749999822192     35.12829998424809
  H         -11.08020001414441    -42.95590000442373     34.49520002482012
  H         -10.92559999890161    -41.55790002702214     33.45839999326137
  H          -8.58904246088023    -43.35060142948586     34.38956572638641
  H          -8.30731707209675    -41.64496651864518     33.93618841392389
  H         -10.32060003679072    -47.00060002896868     29.34209999399284
  H          -9.31923231293429    -45.63192270206806     29.01936722349067
  H          -9.85285621772520    -43.86960368575386     28.91454532349476
  H         -12.14419999880003    -42.55259999942255     30.31029999956096
  H         -10.66580000775137    -41.81479998736931     29.74200000022143
  H         -10.60587876462105    -42.98300225015957     31.07272467550118
  H         -12.59539999939636    -43.24230000153195     27.86959999914622
  H         -11.37960000007553    -44.16730000153881     27.02139999843649
  H         -11.07939999998874    -42.49450000034494     27.42749999873169
  H         -12.47040000007409    -46.81719999754018     29.56420000658993
  H         -12.23239999950188    -45.57209999992765     26.88559999942784
  H         -13.10299999974205    -47.03320000026380     27.28579999972304
  H         -11.36629999943741    -46.97350000041536     27.46789999922287
  H         -13.71859999941087    -44.24929999981310     28.56389999934988
  H         -13.90230000009643    -44.89739999985635     30.17609999906173
  H         -14.57059999896565    -45.75510000012903     28.80829999974373
