88
Coordinates from ORCA-job scan_oxh2 E -2536.310453638816
  C          -4.04965564461595    -42.84275874224232     28.82380750463991
  O          -5.34322537464932    -42.78141633543015     29.41104911158689
  H          -3.95459355773130    -43.70829509281034     28.14894255112763
  H          -3.29746250751387    -42.95683018746130     29.62765592575755
  H          -5.92410671083234    -43.32166191320657     28.83979912686737
  H          -3.69177380269852    -41.84496712173977     28.25114188810267
  C          -6.93648563093468    -48.50998427156195     27.67274860885514
  C          -6.50429900321697    -47.09340251967564     27.46785335418803
  N          -5.75928657727088    -46.68117423205295     26.39258838341465
  C          -6.75691176812810    -45.95006749749010     28.19160279502652
  C          -5.59761807666386    -45.34482582115909     26.50025806497817
  N          -6.19398469438954    -44.85880538036162     27.57511247479812
  H          -7.66239635835685    -48.81703207541155     26.90252826099697
  H          -7.42326355951753    -48.61315314384075     28.65266960106702
  H          -7.28572197807200    -45.86559965349917     29.13717464759154
  H          -5.03033984067274    -44.76255295420886     25.77271778545632
  H          -6.08516400243134    -49.20705498653143     27.62033900083666
  C          -3.50191805093882    -50.48968391422667     23.24399181846511
  C          -3.53099733296425    -50.62388494824011     24.75719307205433
  C          -3.99266750229040    -49.36429861322251     25.50579822654136
  O          -4.62054274660293    -48.49999424291455     24.82410581139396
  O          -3.75239948171479    -49.29985779470767     26.72532368541781
  H          -3.30115521133388    -51.45216774494694     22.74881766468322
  H          -2.73086075543540    -49.77338172891699     22.91900409326115
  H          -4.22882996151317    -51.42697726632768     25.05542803550498
  H          -2.55098368497376    -50.92019510544090     25.16466254956947
  H          -4.47030000139822    -50.10495999575257     22.89581300412332
  H          -5.29489014278262    -47.35126220329610     25.70603510585528
  N          -7.65125384683259    -40.25232986795606     31.41307409656152
  H          -7.18240514579781    -40.55810916636995     30.56602567369016
  H          -8.70372306958227    -39.91025826710590     31.33717888793174
  C          -6.95599999503117    -39.64699592733745     32.36700100206384
  O          -7.44199899879999    -39.39700099872952     33.47400099997937
  H          -5.87838499879400    -39.61832102644381     32.20568000892403
  N          -8.93111547681987    -39.06934642156976     29.08601653628282
  H          -8.16090296948297    -39.71506255402754     28.96833025939772
  H          -9.18698899491708    -38.51394099163674     28.25780000263617
  C          -9.62900001032003    -38.97500606224286     30.22999595538159
  O         -10.60900100894299    -38.24200101022403     30.40399999659412
  H          -9.28002193762340    -39.62624772800344     31.03136714814017
  N          -4.39943106088245    -39.49694340292063     28.45265990928104
  H          -5.24897857046818    -39.98528823848256     28.71260818852150
  H          -4.38481200492808    -38.47214600052330     28.42150099759817
  C          -3.26300091819810    -40.14000003065558     28.13900100607241
  O          -2.22300001598275    -39.55499999245891     27.82999999211195
  H          -3.27576221699486    -41.22927886477943     28.17658309127167
  C          -9.68727955900459    -46.05205012634966     31.26464494442645
  S          -7.93556258824965    -45.66827313396708     31.67011760750007
  P          -7.77202205174755    -43.54798938322885     31.50945623196633
  C          -6.20238026965230    -43.25934303761352     32.32776992138335
  O          -7.96716220617991    -43.02926207844974     30.12463575793761
  O          -8.97799519892891    -43.01966769153124     32.47475236612139
  C         -10.41327473435099    -42.12222672301066     34.24080000276214
  C          -8.99168476460161    -42.51179943093861     33.82289730152722
  C         -10.12151726513194    -46.00626245941327     29.77835015541141
  N         -11.30280006368666    -45.18899999063000     29.58020005329068
  C         -10.93759995474566    -43.83740001428547     29.09519997220067
  C         -11.09855190725457    -42.74508124953935     30.12849790166778
  C         -11.54410002946829    -43.40229999309374     27.75130001527354
  C         -12.44069995693305    -45.91759999773318     28.98559994620722
  C         -12.27300001187985    -46.41109999916834     27.54840000723766
  C         -13.75770001073008    -45.14650000927974     29.14560001919448
  H          -9.81884697888200    -47.05231410199556     31.70341317335953
  H         -10.31965110828904    -45.36261686531771     31.84051917060721
  H          -6.08307138250320    -42.18256915443383     32.49651555090474
  H          -5.41682628477752    -43.59385688074393     31.63813201484736
  H          -6.16670993222019    -43.79860859435742     33.28344780892374
  H         -10.41920000470367    -41.46749999604791     35.12830000394923
  H         -11.08020000382566    -42.95589999990369     34.49520000433519
  H         -10.92560000074544    -41.55790000034028     33.45840000093622
  H          -8.57960298836174    -43.27452674816529     34.50410934996171
  H          -8.34646950062747    -41.62020647447370     33.86249611938600
  H         -10.32059999997773    -47.00059999982160     29.34210000022432
  H          -9.28497857677044    -45.61438751468310     29.18108041163497
  H          -9.85284951163753    -43.87580951380179     28.91196160256345
  H         -12.14420000228449    -42.55259999898321     30.31030000134694
  H         -10.66579999924659    -41.81479999937354     29.74200000121760
  H         -10.60753949827947    -42.98647482525905     31.07445156998837
  H         -12.59539999693235    -43.24230000467203     27.86959999729874
  H         -11.37959999084543    -44.16729999814142     27.02139999648986
  H         -11.07939999766083    -42.49449999988087     27.42749999894245
  H         -12.47040000820601    -46.81719999936441     29.56420000841965
  H         -12.23239999724540    -45.57209999936631     26.88559999990436
  H         -13.10299999860831    -47.03320000007100     27.28579999912466
  H         -11.36629999883415    -46.97350000020112     27.46789999988921
  H         -13.71859999949474    -44.24929999981789     28.56389999645905
  H         -13.90229999819128    -44.89739999645029     30.17609999725602
  H         -14.57059999911141    -45.75509999920880     28.80829999903421
