16
triad sidechains (heavy+capH)
C     -4.691000   -42.256000    28.395000
O     -5.337000   -41.735000    29.543000
H     -3.691771   -41.844970    28.251139
C     -6.711000   -48.524000    27.046000
C     -6.275000   -47.093000    27.072000
N     -5.134000   -46.649000    26.439000
C     -6.871000   -45.992000    27.590000
C     -5.034000   -45.339000    26.585000
N     -6.075000   -44.917000    27.280000
H     -6.085164   -49.207055    27.620339
C     -3.815000   -49.398000    22.387000
C     -2.406000   -49.284000    22.993000
C     -2.412000   -48.616000    24.371000
O     -3.469000   -48.069000    24.763000
O     -1.366000   -48.632000    25.063000
H     -4.470300   -50.104960    22.895813
