25
Coordinates from ORCA-job opt E -866.298666903947
  C           3.78522412429680     -0.71839774556709      0.33596779785589
  P           2.64565505531089      0.44186997639689     -0.37916622600039
  O           2.71022139754699      1.86291782472682      0.03621618602307
  F           2.93894073041332      0.31048273944161     -1.95197691509721
  O           1.22809436053528     -0.27440630544827     -0.23931448321858
  C          -0.00247584370356      0.44871655189427     -0.51875704226203
  C          -0.96245146083024     -0.50809199184779     -1.22638109697408
  C          -1.81852593901606     -1.27974104524337     -0.22561293750217
  C          -2.72561427385882     -0.32449687517801      0.57470229611092
  C          -2.09350232421342      1.07035944908313      0.74315177851967
  C          -0.56980173222221      0.97897265862143      0.80176196750255
  H           4.80923113851491     -0.36793220394037      0.14941613652783
  H           3.64069152557775     -1.71033878834135     -0.11114098261190
  H           3.60614130098630     -0.76552327971840      1.41845177814176
  H           0.24122275263453      1.28540455363022     -1.19295009248786
  H          -1.61152810879988      0.08211075679639     -1.89384727796400
  H          -0.37375532932499     -1.17767845248261     -1.87118751595115
  H          -1.15029924733353     -1.83033475946338      0.45779634077457
  H          -2.42127615343211     -2.04243597153704     -0.74176273851615
  H          -2.93140032096157     -0.76271706720886      1.56479544154400
  H          -3.70196934761199     -0.22431504324962      0.07354196739094
  H          -2.47929895669005      1.55846182982914      1.65089017307040
  H          -2.38123661804443      1.72350716252850     -0.09835700544576
  H          -0.27544201174590      0.27664283131339      1.59943366090602
  H          -0.10684472802802      1.94696318496437      1.04432877966368
