25
Coordinates from ORCA-job opt E -866.291079529978
  C       3.818512     -0.711812      0.272694
  P       2.628593      0.448404     -0.357775
  O       2.659076      1.792463      0.308012
  F       2.712252      0.612498     -1.917895
  O       1.221073     -0.324456     -0.167568
  C       0.031913      0.384855     -0.505538
  C      -0.925685     -0.587565     -1.206717
  C      -1.849693     -1.283606     -0.212636
  C      -2.721211     -0.283034      0.550122
  C      -2.068870      1.090566      0.718372
  C      -0.551770      0.986268      0.779090
  H       4.833247     -0.327558      0.138668
  H       3.741645     -1.666267     -0.255244
  H       3.655287     -0.892756      1.338605
  H       0.279440      1.184407     -1.214641
  H      -1.542898     -0.033618     -1.925261
  H      -0.363182     -1.338898     -1.773071
  H      -1.245096     -1.857740      0.500821
  H      -2.489608     -2.006661     -0.731001
  H      -2.959757     -0.704478      1.534208
  H      -3.679855     -0.155154      0.032852
  H      -2.454646      1.573073      1.623465
  H      -2.352588      1.734635     -0.123561
  H      -0.258622      0.386838      1.650970
  H      -0.117557      1.979596      0.943029
25
Coordinates from ORCA-job opt E -866.295950517312
  C       3.825759     -0.729916      0.264615
  P       2.649098      0.448526     -0.348824
  O       2.722812      1.812888      0.252710
  F       2.772404      0.534888     -1.921765
  O       1.235149     -0.303614     -0.162579
  C       0.024144      0.408660     -0.493513
  C      -0.928873     -0.560986     -1.198988
  C      -1.836665     -1.285947     -0.205950
  C      -2.741790     -0.300049      0.553003
  C      -2.099564      1.089115      0.713088
  C      -0.576874      0.997011      0.788981
  H       4.847363     -0.362445      0.096857
  H       3.710276     -1.700694     -0.238316
  H       3.668319     -0.864187      1.342206
  H       0.267531      1.222407     -1.196174
  H      -1.553778      0.002660     -1.910971
  H      -0.344781     -1.284313     -1.786795
  H      -1.209541     -1.844891      0.509064
  H      -2.450711     -2.035390     -0.728237
  H      -2.979085     -0.720933      1.543755
  H      -3.704866     -0.192004      0.027714
  H      -2.494886      1.581580      1.614140
  H      -2.379137      1.731685     -0.139102
  H      -0.286967      0.368645      1.646990
  H      -0.135336      1.987306      0.978090
25
Coordinates from ORCA-job opt E -866.298281060897
  C       3.809596     -0.744865      0.269293
  P       2.651173      0.451799     -0.338097
  O       2.758193      1.837598      0.178281
  F       2.842825      0.429770     -1.921134
  O       1.234577     -0.277419     -0.169038
  C       0.009813      0.437707     -0.492656
  C      -0.936303     -0.532007     -1.199273
  C      -1.815236     -1.286787     -0.203518
  C      -2.743954     -0.318523      0.559159
  C      -2.115477      1.083218      0.712299
  C      -0.591442      1.004163      0.796787
  H       4.832137     -0.394006      0.070204
  H       3.654627     -1.725410     -0.202017
  H       3.655497     -0.824436      1.354571
  H       0.259100      1.261401     -1.183013
  H      -1.571752      0.041068     -1.895441
  H      -0.333181     -1.217397     -1.815004
  H      -1.161658     -1.826989      0.503869
  H      -2.404065     -2.059412     -0.723221
  H      -2.972035     -0.738487      1.553337
  H      -3.710357     -0.229846      0.034885
  H      -2.514346      1.582488      1.609190
  H      -2.393897      1.723745     -0.143313
  H      -0.302121      0.337250      1.627750
  H      -0.141716      1.985379      1.016101
25
Coordinates from ORCA-job opt E -866.298515763491
  C       3.799506     -0.741437      0.287928
  P       2.647567      0.448779     -0.348870
  O       2.747940      1.846572      0.129625
  F       2.872416      0.383160     -1.932129
  O       1.230777     -0.272747     -0.187683
  C       0.004247      0.445886     -0.499883
  C      -0.944063     -0.521164     -1.207424
  C      -1.810481     -1.284342     -0.208648
  C      -2.736187     -0.322437      0.563622
  C      -2.111437      1.078797      0.720280
  C      -0.587917      0.998833      0.800202
  H       4.821906     -0.391716      0.090336
  H       3.643666     -1.725917     -0.171652
  H       3.638224     -0.804341      1.373265
  H       0.255489      1.273056     -1.184095
  H      -1.585873      0.057982     -1.891816
  H      -0.343269     -1.195770     -1.836361
  H      -1.148443     -1.822145      0.491411
  H      -2.398747     -2.058600     -0.725102
  H      -2.956975     -0.746339      1.556961
  H      -3.704907     -0.234159      0.045161
  H      -2.508370      1.575962      1.618644
  H      -2.392163      1.721047     -0.132286
  H      -0.298072      0.316283      1.617170
  H      -0.134833      1.974755      1.031345
25
Coordinates from ORCA-job opt E -866.298634117337
  C       3.789525     -0.731921      0.314986
  P       2.644250      0.443386     -0.366608
  O       2.728647      1.854982      0.071854
  F       2.905626      0.335393     -1.947069
  O       1.227152     -0.271544     -0.214027
  C      -0.000598      0.451152     -0.510125
  C      -0.954326     -0.510913     -1.218852
  C      -1.810396     -1.281231     -0.217520
  C      -2.727242     -0.325032      0.569450
  C      -2.102849      1.073524      0.732801
  C      -0.579401      0.989496      0.802640
  H       4.812293     -0.380716      0.124644
  H       3.639643     -1.721299     -0.134449
  H       3.617295     -0.781749      1.398897
  H       0.250372      1.282551     -1.188095
  H      -1.602524      0.075707     -1.890180
  H      -0.360117     -1.178241     -1.860812
  H      -1.141729     -1.821744      0.473167
  H      -2.404017     -2.052374     -0.731372
  H      -2.939055     -0.756225      1.561125
  H      -3.699787     -0.232794      0.059831
  H      -2.495457      1.566038      1.635116
  H      -2.387762      1.720190     -0.114331
  H      -0.287467      0.292884      1.605948
  H      -0.122078      1.960476      1.042983
25
Coordinates from ORCA-job opt E -866.298653401851
  C       3.787032     -0.725991      0.326738
  P       2.644280      0.440988     -0.374453
  O       2.719741      1.858261      0.049296
  F       2.920486      0.318668     -1.952439
  O       1.226812     -0.272433     -0.225798
  C      -0.001895      0.451318     -0.514241
  C      -0.958520     -0.507959     -1.223336
  C      -1.813100     -1.280151     -0.222001
  C      -2.725270     -0.325424      0.571986
  C      -2.098649      1.071580      0.738705
  C      -0.574943      0.984839      0.802912
  H       4.810163     -0.373741      0.139773
  H       3.640946     -1.717193     -0.120528
  H       3.610433     -0.773320      1.409792
  H       0.247126      1.284881     -1.190123
  H      -1.608170      0.081457     -1.890848
  H      -0.367422     -1.174776     -1.868615
  H      -1.143482     -1.824449      0.464848
  H      -2.410887     -2.047946     -0.736043
  H      -2.933701     -0.760619      1.562722
  H      -3.699757     -0.229895      0.066531
  H      -2.488679      1.561575      1.643485
  H      -2.385454      1.721231     -0.105593
  H      -0.281533      0.284595      1.602479
  H      -0.115557      1.954503      1.044750
25
Coordinates from ORCA-job opt E -866.298665769373
  C       3.786190     -0.721571      0.333364
  P       2.645099      0.440097     -0.378646
  O       2.714590      1.860680      0.037198
  F       2.930689      0.310055     -1.954209
  O       1.227300     -0.273357     -0.233107
  C      -0.002387      0.450461     -0.516522
  C      -0.960860     -0.506937     -1.225546
  C      -1.815951     -1.279690     -0.224824
  C      -2.725247     -0.325348      0.573544
  C      -2.095959      1.070560      0.742176
  C      -0.572100      0.981672      0.802714
  H       4.809670     -0.369315      0.147498
  H       3.642015     -1.713624     -0.113383
  H       3.607578     -0.768373      1.415972
  H       0.244247      1.285738     -1.191272
  H      -1.610589      0.083683     -1.892025
  H      -0.371367     -1.174676     -1.871442
  H      -1.146728     -1.827547      0.459781
  H      -2.416795     -2.044547     -0.739886
  H      -2.931932     -0.763140      1.563637
  H      -3.700955     -0.227145      0.070727
  H      -2.483947      1.558919      1.648791
  H      -2.383703      1.722515     -0.100215
  H      -0.277700      0.280183      1.600988
  H      -0.111161      1.950709      1.044687
25
Coordinates from ORCA-job opt E -866.298663780477
  C       3.785865     -0.719575      0.335403
  P       2.645623      0.440448     -0.379668
  O       2.712621      1.861993      0.034056
  F       2.935320      0.307948     -1.953735
  O       1.227747     -0.273806     -0.236188
  C      -0.002466      0.449712     -0.517453
  C      -0.961684     -0.507060     -1.226116
  C      -1.817441     -1.279622     -0.225740
  C      -2.725613     -0.325103      0.574155
  C      -2.094762      1.070263      0.743210
  C      -0.570931      0.980216      0.802451
  H       4.809584     -0.368047      0.149180
  H       3.641801     -1.711788     -0.111297
  H       3.606905     -0.766320      1.417926
  H       0.242648      1.285868     -1.191762
  H      -1.611067      0.083617     -1.892907
  H      -0.372622     -1.175693     -1.871558
  H      -1.148785     -1.829271      0.458052
  H      -2.419505     -2.043052     -0.741595
  H      -2.931764     -0.763676      1.564049
  H      -3.701744     -0.225647      0.072351
  H      -2.481655      1.558094      1.650623
  H      -2.382658      1.723187     -0.098448
  H      -0.276302      0.278434      1.600482
  H      -0.109117      1.948877      1.044527
25
Coordinates from ORCA-job opt E -866.298666385805
  C       3.785538     -0.718694      0.335887
  P       2.645765      0.441198     -0.379585
  O       2.711394      1.862695      0.034435
  F       2.937638      0.308590     -1.952774
  O       1.228002     -0.274097     -0.237941
  C      -0.002458      0.449147     -0.518092
  C      -0.962087     -0.507551     -1.226262
  C      -1.818178     -1.279666     -0.225842
  C      -2.725737     -0.324792      0.574455
  C      -2.094047      1.070252      0.743319
  C      -0.570298      0.979422      0.802158
  H       4.809432     -0.367921      0.149222
  H       3.641124     -1.710829     -0.110887
  H       3.606604     -0.765492      1.418408
  H       0.241739      1.285724     -1.192243
  H      -1.611205      0.082872     -1.893515
  H      -0.373187     -1.176797     -1.871241
  H      -1.149880     -1.830084      0.457669
  H      -2.420710     -2.042498     -0.742058
  H      -2.931682     -0.763333      1.564391
  H      -3.702012     -0.224791      0.073069
  H      -2.480279      1.558095      1.651019
  H      -2.381846      1.723452     -0.098147
  H      -0.275788      0.277382      1.600034
  H      -0.107842      1.947715      1.044522
25
Coordinates from ORCA-job opt E -866.298666903947
  C       3.785224     -0.718398      0.335968
  P       2.645655      0.441870     -0.379166
  O       2.710221      1.862918      0.036216
  F       2.938941      0.310483     -1.951977
  O       1.228094     -0.274406     -0.239314
  C      -0.002476      0.448717     -0.518757
  C      -0.962451     -0.508092     -1.226381
  C      -1.818526     -1.279741     -0.225613
  C      -2.725614     -0.324497      0.574702
  C      -2.093502      1.070359      0.743152
  C      -0.569802      0.978973      0.801762
  H       4.809231     -0.367932      0.149416
  H       3.640692     -1.710339     -0.111141
  H       3.606141     -0.765523      1.418452
  H       0.241223      1.285405     -1.192950
  H      -1.611528      0.082111     -1.893847
  H      -0.373755     -1.177678     -1.871188
  H      -1.150299     -1.830335      0.457796
  H      -2.421276     -2.042436     -0.741763
  H      -2.931400     -0.762717      1.564795
  H      -3.701969     -0.224315      0.073542
  H      -2.479299      1.558462      1.650890
  H      -2.381237      1.723507     -0.098357
  H      -0.275442      0.276643      1.599434
  H      -0.106845      1.946963      1.044329
