29
Coordinates from ORCA-job opt E -976.885441516251
  C          -0.83536527584862      0.66895024958314      2.73982247260572
  C          -1.40972191738266     -0.32075065545023      1.73531780778936
  N          -0.74132281928893     -0.25545008986008      0.42997445059831
  C          -1.29454149465000      0.73504677559752     -0.49609650618765
  C          -2.36736528535819      0.14606965544054     -1.40089830327237
  C           0.27189727063740     -1.06300465150615      0.10058625285644
  C           0.72226822272675     -2.08078597621558      1.12194920747743
  N           0.89900429652377     -1.08622841923980     -1.04882521992877
  P           1.37146631462015     -0.24242530810586     -2.31199757702185
  O           2.36486002290733     -0.89779901117270     -3.19703606144752
  F           0.09911812087290      0.18832571666957     -3.19295387387605
  O           1.77872968519960      1.25081107038270     -1.84674236118403
  C           2.94264157051204      1.43728926306530     -1.04745814347884
  H          -1.39653074836542      0.61372687832236      3.68386976349023
  H           0.22173648780539      0.45212508400992      2.95512401848193
  H          -0.90299775684334      1.70110726003737      2.36439477382500
  H          -1.36492461423069     -1.34491726465507      2.12318982687284
  H          -2.47479576980050     -0.11078194155437      1.55818549219766
  H          -0.48184627433472      1.18978881226762     -1.07240282417970
  H          -1.71376118680119      1.54531296706710      0.11725687591516
  H          -2.75025309067711      0.91975326450229     -2.08192691781476
  H          -1.96024753736172     -0.67214398286226     -2.01045322870523
  H          -3.21265843753384     -0.24072115864344     -0.81185524578634
  H          -0.05176448824472     -2.85022076810140      1.26569488372847
  H           0.92557806549299     -1.62040585605321      2.09811309417997
  H           1.63230654831683     -2.56107784782060      0.74998998960174
  H           3.11089613182577      2.51758437825642     -0.96403905985014
  H           3.81806105430527      0.96676038222969     -1.52024216170215
  H           2.79953291497547      1.01406119380920     -0.04054145518486
