29
Coordinates from ORCA-job opt E -976.860763645302
  C       0.065369      0.803993      2.378676
  C      -1.072753      0.266142      1.524676
  N      -0.599712     -0.018226      0.159972
  C      -1.478017      0.495347     -0.903413
  C      -2.688474     -0.405503     -1.100074
  C       0.227482     -1.104027     -0.101855
  C       0.038288     -2.362458      0.734167
  N       1.176142     -1.185283     -0.966348
  P       1.764481     -0.108404     -1.975104
  O       3.136950     -0.363739     -2.530126
  F       0.743094     -0.063718     -3.171624
  O       1.632523      1.382229     -1.363330
  C       2.597980      1.738501     -0.397201
  H      -0.292000      1.027670      3.388666
  H       0.885787      0.084663      2.461000
  H       0.470940      1.726091      1.949478
  H      -1.511001     -0.625507      1.985041
  H      -1.866436      1.023091      1.510529
  H      -0.941533      0.579459     -1.848824
  H      -1.807973      1.511907     -0.658150
  H      -3.334923     -0.003747     -1.886561
  H      -2.385730     -1.416042     -1.393232
  H      -3.279936     -0.485269     -0.182355
  H      -1.026114     -2.597247      0.821874
  H       0.464347     -2.212068      1.729379
  H       0.540847     -3.214158      0.265368
  H       2.305944      2.688495      0.057248
  H       3.574480      1.860437     -0.873289
  H       2.659946      0.977373      0.385412
29
Coordinates from ORCA-job opt E -976.870103106874
  C       0.014707      0.643962      2.511487
  C      -1.080744      0.174152      1.562051
  N      -0.560950     -0.045307      0.208815
  C      -1.349220      0.545053     -0.881565
  C      -2.596685     -0.273477     -1.198790
  C       0.238810     -1.131572     -0.031332
  C       0.060130     -2.336887      0.868286
  N       1.160411     -1.224746     -0.940851
  P       1.719137     -0.175446     -2.024357
  O       3.085505     -0.440631     -2.562348
  F       0.674890     -0.198901     -3.214126
  O       1.540807      1.346650     -1.515143
  C       2.494264      1.831373     -0.576460
  H      -0.399465      0.821190      3.514858
  H       0.821143     -0.099242      2.604569
  H       0.460613      1.583385      2.153820
  H      -1.569166     -0.733911      1.953947
  H      -1.859119      0.946527      1.515125
  H      -0.739069      0.643673     -1.786453
  H      -1.629248      1.569308     -0.597703
  H      -3.171235      0.205221     -2.005343
  H      -2.329977     -1.289446     -1.527552
  H      -3.253402     -0.362409     -0.320197
  H      -1.008562     -2.555661      1.004173
  H       0.514127     -2.148545      1.852895
  H       0.551257     -3.206864      0.420532
  H       2.144177      2.804232     -0.211016
  H       3.474373      1.960913     -1.057962
  H       2.592492      1.147405      0.280642
29
Coordinates from ORCA-job opt E -976.874114786937
  C      -0.074887      0.602159      2.568559
  C      -1.121251      0.096853      1.581097
  N      -0.580629     -0.075187      0.229935
  C      -1.341570      0.572648     -0.844472
  C      -2.607249     -0.197464     -1.206278
  C       0.237822     -1.136007     -0.014114
  C       0.132161     -2.316603      0.915437
  N       1.131417     -1.231870     -0.967241
  P       1.740883     -0.211518     -2.076581
  O       3.092513     -0.557220     -2.573572
  F       0.696253     -0.196283     -3.281297
  O       1.601084      1.330757     -1.626570
  C       2.528371      1.846707     -0.668191
  H      -0.527224      0.746857      3.562402
  H       0.763303     -0.104493      2.680903
  H       0.336885      1.567176      2.232032
  H      -1.594672     -0.830312      1.948906
  H      -1.926212      0.839647      1.497510
  H      -0.718159      0.700346     -1.730723
  H      -1.587553      1.590351     -0.505734
  H      -3.160683      0.335356     -1.995741
  H      -2.360091     -1.204823     -1.581794
  H      -3.276811     -0.309054     -0.337178
  H      -0.921959     -2.576576      1.093034
  H       0.602292     -2.100290      1.888250
  H       0.656813     -3.165340      0.463502
  H       2.174669      2.845948     -0.382809
  H       3.537075      1.924738     -1.104328
  H       2.567410      1.213497      0.235057
29
Coordinates from ORCA-job opt E -976.876415289868
  C      -0.203228      0.577044      2.640432
  C      -1.184529      0.030901      1.610912
  N      -0.586378     -0.131110      0.277692
  C      -1.247641      0.608161     -0.802481
  C      -2.528946     -0.073418     -1.263082
  C       0.261089     -1.163765      0.033636
  C       0.271649     -2.329650      0.984255
  N       1.078780     -1.261512     -0.986775
  P       1.653486     -0.250042     -2.131229
  O       2.965758     -0.641244     -2.677106
  F       0.538335     -0.191349     -3.281813
  O       1.552020      1.296521     -1.693363
  C       2.496619      1.826921     -0.758617
  H      -0.709854      0.717216      3.607120
  H       0.648466     -0.099786      2.805706
  H       0.193824      1.550130      2.311361
  H      -1.657956     -0.898739      1.962119
  H      -2.001605      0.752818      1.473763
  H      -0.565801      0.741167     -1.642975
  H      -1.447767      1.620849     -0.421369
  H      -3.006800      0.525450     -2.053137
  H      -2.310944     -1.072547     -1.674017
  H      -3.250601     -0.187093     -0.438555
  H      -0.750034     -2.660501      1.215200
  H       0.764443     -2.078583      1.934991
  H       0.840707     -3.139481      0.515388
  H       2.155863      2.839053     -0.509002
  H       3.502606      1.869242     -1.202567
  H       2.528438      1.223347      0.163512
29
Coordinates from ORCA-job opt E -976.878370419524
  C      -0.373527      0.614479      2.643797
  C      -1.277775     -0.056533      1.620268
  N      -0.662613     -0.158079      0.285249
  C      -1.336240      0.620910     -0.760663
  C      -2.591085     -0.078380     -1.260278
  C       0.252531     -1.117852      0.023468
  C       0.414530     -2.242793      1.010772
  N       1.017085     -1.207275     -1.038589
  P       1.616929     -0.209543     -2.180884
  O       2.834101     -0.726862     -2.827421
  F       0.434676      0.039051     -3.243918
  O       1.714155      1.318547     -1.685036
  C       2.749641      1.719040     -0.784199
  H      -0.899189      0.702946      3.605375
  H       0.551289      0.047961      2.821317
  H      -0.095833      1.623559      2.304058
  H      -1.638349     -1.032800      1.974221
  H      -2.176581      0.559003      1.477705
  H      -0.656639      0.820778     -1.586612
  H      -1.566853      1.604888     -0.325903
  H      -3.087052      0.545851     -2.017698
  H      -2.333402     -1.042195     -1.725082
  H      -3.310041     -0.264149     -0.448398
  H      -0.555828     -2.671484      1.294347
  H       0.909612     -1.914840      1.935610
  H       1.050443     -3.000526      0.542963
  H       2.540623      2.760227     -0.513897
  H       3.733722      1.644315     -1.268147
  H       2.741669      1.101754      0.127574
29
Coordinates from ORCA-job opt E -976.880211950859
  C      -0.453728      0.582220      2.664045
  C      -1.308293     -0.148097      1.640849
  N      -0.683461     -0.192483      0.305522
  C      -1.315085      0.697824     -0.677546
  C      -2.545496      0.052631     -1.293202
  C       0.248384     -1.117086      0.013844
  C       0.508910     -2.184261      1.051165
  N       0.980698     -1.234687     -1.066896
  P       1.612165     -0.301229     -2.229358
  O       2.848914     -0.854495     -2.816293
  F       0.475024     -0.088528     -3.350911
  O       1.703825      1.243924     -1.790196
  C       2.687105      1.674169     -0.852148
  H      -0.982019      0.622727      3.626189
  H       0.510910      0.086480      2.833223
  H      -0.254983      1.611249      2.333235
  H      -1.580130     -1.156675      1.978365
  H      -2.258561      0.389054      1.524203
  H      -0.609911      0.981321     -1.452608
  H      -1.565924      1.632378     -0.155342
  H      -3.018709      0.751669     -1.996286
  H      -2.261621     -0.851898     -1.848578
  H      -3.290571     -0.223734     -0.534767
  H      -0.420016     -2.667112      1.381659
  H       0.998331     -1.774866      1.945228
  H       1.182779     -2.920357      0.605278
  H       2.500811      2.736805     -0.665443
  H       3.694893      1.534956     -1.264739
  H       2.595759      1.118102      0.091505
29
Coordinates from ORCA-job opt E -976.882416329850
  C      -0.526742      0.653905      2.656225
  C      -1.313241     -0.192697      1.666237
  N      -0.691949     -0.225139      0.331164
  C      -1.298796      0.701015     -0.632759
  C      -2.498086      0.074592     -1.327761
  C       0.249469     -1.122904      0.018417
  C       0.553109     -2.186271      1.055017
  N       0.945482     -1.224288     -1.087852
  P       1.539351     -0.286589     -2.250000
  O       2.738521     -0.839660     -2.922878
  F       0.365188     -0.022515     -3.317374
  O       1.691239      1.240588     -1.763853
  C       2.721233      1.607608     -0.851548
  H      -1.051306      0.678332      3.621989
  H       0.483483      0.259736      2.831517
  H      -0.430636      1.686408      2.289925
  H      -1.473774     -1.214222      2.034216
  H      -2.315932      0.238779      1.550577
  H      -0.564827      1.025189     -1.369402
  H      -1.581914      1.609019     -0.081552
  H      -2.955332      0.802038     -2.013548
  H      -2.181997     -0.798424     -1.916645
  H      -3.266843     -0.248416     -0.611194
  H      -0.352877     -2.713740      1.383066
  H       1.020941     -1.748711      1.948149
  H       1.256675     -2.896635      0.612977
  H       2.595963      2.674917     -0.638109
  H       3.708907      1.430948     -1.300266
  H       2.634692      1.037140      0.085267
29
Coordinates from ORCA-job opt E -976.884349393701
  C      -0.634443      0.712152      2.656395
  C      -1.348126     -0.243265      1.708830
  N      -0.730370     -0.267792      0.377797
  C      -1.297043      0.700886     -0.565484
  C      -2.408766      0.089903     -1.407668
  C       0.237549     -1.124572      0.050378
  C       0.627857     -2.161153      1.084997
  N       0.881865     -1.192550     -1.092009
  P       1.408749     -0.248249     -2.264157
  O       2.513878     -0.803695     -3.087888
  F       0.167652      0.118180     -3.214967
  O       1.684128      1.244094     -1.720861
  C       2.807904      1.505147     -0.885395
  H      -1.151037      0.730072      3.627637
  H       0.411200      0.413276      2.829721
  H      -0.634557      1.735602      2.250410
  H      -1.392452     -1.259317      2.115244
  H      -2.392714      0.076214      1.584700
  H      -0.513253      1.105754     -1.209621
  H      -1.665206      1.552466      0.024275
  H      -2.839255      0.852190     -2.073796
  H      -2.010556     -0.723631     -2.032966
  H      -3.218982     -0.314759     -0.781698
  H      -0.222319     -2.787066      1.388924
  H       1.025340     -1.671789      1.987550
  H       1.408730     -2.797432      0.657328
  H       2.789091      2.573932     -0.640860
  H       3.743941      1.266140     -1.413222
  H       2.751194      0.919261      0.046405
29
Coordinates from ORCA-job opt E -976.884603313357
  C      -0.798189      0.730103      2.692077
  C      -1.383892     -0.310391      1.745683
  N      -0.752191     -0.282534      0.421300
  C      -1.306107      0.725157     -0.486809
  C      -2.338533      0.133186     -1.436034
  C       0.248422     -1.094063      0.082561
  C       0.702927     -2.109946      1.106665
  N       0.842982     -1.156189     -1.089271
  P       1.341544     -0.241136     -2.292709
  O       2.357697     -0.844388     -3.192067
  F       0.074334      0.216069     -3.169639
  O       1.733833      1.228679     -1.755905
  C       2.916741      1.416765     -0.984476
  H      -1.329232      0.701565      3.654967
  H       0.270725      0.548962      2.882481
  H      -0.904554      1.743420      2.275186
  H      -1.311547     -1.319581      2.165126
  H      -2.457043     -0.122245      1.596488
  H      -0.499433      1.213296     -1.042030
  H      -1.751156      1.509756      0.140544
  H      -2.756016      0.922664     -2.077948
  H      -1.873612     -0.622623     -2.085073
  H      -3.168859     -0.336539     -0.886421
  H      -0.102162     -2.803088      1.389228
  H       1.049556     -1.604776      2.020412
  H       1.532686     -2.681311      0.679776
  H       2.993005      2.488297     -0.764439
  H       3.803437      1.095528     -1.552085
  H       2.864636      0.855366     -0.037588
29
Coordinates from ORCA-job opt E -976.885058140173
  C      -0.760182      0.755623      2.669188
  C      -1.362643     -0.288085      1.737188
  N      -0.748827     -0.280373      0.403285
  C      -1.316534      0.702083     -0.523930
  C      -2.401249      0.100367     -1.406891
  C       0.246241     -1.106325      0.066223
  C       0.685891     -2.133427      1.081265
  N       0.857091     -1.149674     -1.097646
  P       1.372584     -0.219582     -2.286973
  O       2.409009     -0.806680     -3.170806
  F       0.125617      0.245777     -3.187756
  O       1.745267      1.246773     -1.724630
  C       2.917044      1.427171     -0.933985
  H      -1.281374      0.740142      3.637439
  H       0.308093      0.564149      2.849977
  H      -0.859884      1.766682      2.246155
  H      -1.291802     -1.292123      2.171374
  H      -2.435755     -0.096300      1.590766
  H      -0.515899      1.155445     -1.120575
  H      -1.725148      1.515768      0.090405
  H      -2.814040      0.871810     -2.073111
  H      -1.991307     -0.704112     -2.031441
  H      -3.226570     -0.306341     -0.802388
  H      -0.125592     -2.832178      1.331697
  H       1.012170     -1.646162      2.011422
  H       1.524605     -2.695689      0.659984
  H       2.988574      2.496328     -0.701516
  H       3.812438      1.112444     -1.490961
  H       2.852183      0.856488      0.006242
29
Coordinates from ORCA-job opt E -976.885201722787
  C      -0.757530      0.736491      2.685502
  C      -1.371367     -0.284900      1.737875
  N      -0.749454     -0.269006      0.407759
  C      -1.318319      0.710619     -0.522170
  C      -2.386313      0.099813     -1.418137
  C       0.243026     -1.098203      0.069098
  C       0.690092     -2.118263      1.088952
  N       0.853784     -1.143200     -1.092757
  P       1.367176     -0.223385     -2.289777
  O       2.401334     -0.818967     -3.170905
  F       0.119382      0.234575     -3.192489
  O       1.740657      1.246886     -1.736217
  C       2.912341      1.426223     -0.946894
  H      -1.283410      0.715561      3.650815
  H       0.306283      0.523338      2.867964
  H      -0.837695      1.755128      2.277241
  H      -1.314202     -1.293962      2.160705
  H      -2.441729     -0.077384      1.590864
  H      -0.517183      1.174812     -1.106752
  H      -1.744971      1.517835      0.089076
  H      -2.796173      0.867446     -2.090251
  H      -1.963716     -0.703424     -2.036875
  H      -3.215288     -0.311454     -0.822640
  H      -0.119707     -2.819418      1.337912
  H       1.012690     -1.629144      2.019157
  H       1.530862     -2.678500      0.669293
  H       2.993299      2.496964     -0.725715
  H       3.805107      1.097367     -1.499536
  H       2.841023      0.866152     -0.001099
29
Coordinates from ORCA-job opt E -976.885287325514
  C      -0.780282      0.722135      2.703791
  C      -1.381096     -0.292900      1.742045
  N      -0.750280     -0.258825      0.416896
  C      -1.321667      0.720064     -0.512166
  C      -2.373653      0.104142     -1.422906
  C       0.245708     -1.081853      0.075777
  C       0.702768     -2.097241      1.095970
  N       0.850339     -1.124377     -1.087610
  P       1.360391     -0.223334     -2.298822
  O       2.379892     -0.838580     -3.182875
  F       0.112139      0.241660     -3.197224
  O       1.751271      1.248071     -1.757071
  C       2.927152      1.413821     -0.971669
  H      -1.311843      0.686507      3.665526
  H       0.283386      0.510728      2.889736
  H      -0.862429      1.745532      2.308045
  H      -1.315591     -1.304835      2.156530
  H      -2.452497     -0.094621      1.589879
  H      -0.518693      1.200306     -1.080266
  H      -1.767980      1.515919      0.100468
  H      -2.775972      0.869472     -2.102067
  H      -1.942451     -0.700254     -2.034390
  H      -3.208809     -0.307030     -0.836345
  H      -0.097537     -2.817414      1.321854
  H       0.998304     -1.613142      2.037316
  H       1.560903     -2.636028      0.683653
  H       3.038699      2.486858     -0.776580
  H       3.810466      1.045984     -1.514877
  H       2.839365      0.879234     -0.012619
29
Coordinates from ORCA-job opt E -976.885339655276
  C      -0.793644      0.712286      2.716759
  C      -1.387302     -0.297192      1.744447
  N      -0.749387     -0.251874      0.423267
  C      -1.321596      0.724955     -0.507005
  C      -2.366619      0.105987     -1.423782
  C       0.249256     -1.070457      0.079982
  C       0.713034     -2.084576      1.098875
  N       0.850309     -1.107443     -1.084373
  P       1.355627     -0.221227     -2.307107
  O       2.362772     -0.851560     -3.194351
  F       0.105024      0.247687     -3.200054
  O       1.759900      1.251636     -1.776832
  C       2.933258      1.406543     -0.985034
  H      -1.329742      0.668123      3.675783
  H       0.269451      0.500535      2.906250
  H      -0.874902      1.738824      2.328916
  H      -1.320975     -1.311834      2.152626
  H      -2.458271     -0.100748      1.587901
  H      -0.516791      1.210416     -1.068423
  H      -1.776167      1.517151      0.104528
  H      -2.762457      0.868488     -2.109936
  H      -1.932921     -0.702606     -2.028028
  H      -3.206283     -0.301341     -0.840776
  H      -0.077405     -2.823477      1.299606
  H       0.981137     -1.608402      2.052026
  H       1.588223     -2.601528      0.694317
  H       3.076261      2.481345     -0.822312
  H       3.810357      0.994911     -1.506690
  H       2.819855      0.905377     -0.010581
29
Coordinates from ORCA-job opt E -976.885376047911
  C      -0.811868      0.695066      2.730758
  C      -1.394374     -0.307051      1.743502
  N      -0.746486     -0.245367      0.428099
  C      -1.318877      0.732487     -0.500416
  C      -2.367241      0.116559     -1.415776
  C       0.258817     -1.054537      0.083185
  C       0.731318     -2.066190      1.101344
  N       0.857026     -1.084924     -1.081481
  P       1.357386     -0.224297     -2.322258
  O       2.349673     -0.879341     -3.208158
  F       0.104030      0.244876     -3.211345
  O       1.777931      1.253392     -1.816669
  C       2.934912      1.399687     -0.998707
  H      -1.354512      0.638867      3.685630
  H       0.250765      0.486005      2.926295
  H      -0.894189      1.725122      2.352482
  H      -1.329231     -1.326393      2.140778
  H      -2.464474     -0.111287      1.581611
  H      -0.512861      1.215715     -1.062623
  H      -1.770521      1.525848      0.112009
  H      -2.756148      0.877793     -2.107262
  H      -1.939351     -0.699299     -2.014468
  H      -3.210230     -0.282251     -0.831437
  H      -0.040680     -2.834237      1.263504
  H       0.955174     -1.602404      2.071330
  H       1.633325     -2.547712      0.711845
  H       3.130007      2.474132     -0.899283
  H       3.804502      0.910949     -1.463655
  H       2.766178      0.968791      0.001167
29
Coordinates from ORCA-job opt E -976.885406797558
  C      -0.805429      0.699184      2.726853
  C      -1.392707     -0.303758      1.742959
  N      -0.746300     -0.248356      0.426626
  C      -1.317340      0.728387     -0.504015
  C      -2.369436      0.112866     -1.415550
  C       0.258518     -1.059980      0.083818
  C       0.724382     -2.075231      1.100942
  N       0.860198     -1.089101     -1.079524
  P       1.357803     -0.221621     -2.316680
  O       2.352443     -0.868047     -3.206770
  F       0.101071      0.244862     -3.201999
  O       1.774101      1.255473     -1.807388
  C       2.934890      1.405652     -0.995378
  H      -1.347361      0.648624      3.682391
  H       0.256824      0.488451      2.922418
  H      -0.885390      1.727815      2.344240
  H      -1.333033     -1.322780      2.142239
  H      -2.461948     -0.102654      1.581654
  H      -0.511565      1.205267     -1.072249
  H      -1.762971      1.526537      0.106366
  H      -2.761542      0.874353     -2.104948
  H      -1.942007     -0.701512     -2.016472
  H      -3.210411     -0.287779     -0.829502
  H      -0.051463     -2.838895      1.264615
  H       0.951410     -1.611013      2.070096
  H       1.623699     -2.562308      0.711980
  H       3.119803      2.481033     -0.887138
  H       3.806418      0.930818     -1.471034
  H       2.777342      0.963714      0.001450
29
Coordinates from ORCA-job opt E -976.885420142650
  C      -0.809605      0.695288      2.725562
  C      -1.395523     -0.307467      1.740635
  N      -0.746909     -0.253412      0.425141
  C      -1.313977      0.727870     -0.503033
  C      -2.373878      0.119999     -1.410648
  C       0.260500     -1.063533      0.085526
  C       0.724670     -2.077782      1.104035
  N       0.866739     -1.092461     -1.075759
  P       1.362029     -0.225761     -2.314282
  O       2.358262     -0.870430     -3.204179
  F       0.102492      0.235235     -3.198686
  O       1.775651      1.253278     -1.810586
  C       2.937352      1.411703     -1.001478
  H      -1.354356      0.646798      3.679523
  H       0.252071      0.485722      2.924924
  H      -0.888779      1.722969      2.340275
  H      -1.341006     -1.327180      2.138741
  H      -2.463873     -0.102878      1.577484
  H      -0.507866      1.196921     -1.077352
  H      -1.748670      1.530614      0.109096
  H      -2.767804      0.885867     -2.094108
  H      -1.950556     -0.691813     -2.017750
  H      -3.213268     -0.281885     -0.823226
  H      -0.049317     -2.843343      1.266850
  H       0.947826     -1.611676      2.073176
  H       1.626389     -2.563252      0.718644
  H       3.117086      2.488324     -0.897250
  H       3.810171      0.940303     -1.478163
  H       2.784150      0.971980     -0.003108
29
Coordinates from ORCA-job opt E -976.885427602156
  C      -0.813868      0.688451      2.729379
  C      -1.398296     -0.309984      1.739300
  N      -0.745788     -0.253271      0.425857
  C      -1.310716      0.729220     -0.502198
  C      -2.374075      0.124665     -1.407947
  C       0.263867     -1.062073      0.088923
  C       0.724680     -2.077259      1.107682
  N       0.873467     -1.089823     -1.070345
  P       1.364259     -0.228558     -2.314088
  O       2.359197     -0.875324     -3.204047
  F       0.101508      0.226359     -3.196975
  O       1.777939      1.253222     -1.819340
  C       2.938893      1.416662     -1.010358
  H      -1.362346      0.638719      3.681080
  H       0.246734      0.477072      2.932421
  H      -0.890088      1.717086      2.346078
  H      -1.348348     -1.331451      2.133710
  H      -2.465636     -0.101961      1.573517
  H      -0.504076      1.193685     -1.079395
  H      -1.740420      1.534780      0.109790
  H      -2.767869      0.892161     -2.089651
  H      -1.952994     -0.686948     -2.016880
  H      -3.213462     -0.276339     -0.819988
  H      -0.047468     -2.846604      1.261556
  H       0.938075     -1.613663      2.080135
  H       1.631167     -2.558202      0.727824
  H       3.122426      2.493726     -0.917964
  H       3.810760      0.937094     -1.480566
  H       2.782475      0.988561     -0.007511
29
Coordinates from ORCA-job opt E -976.885424783747
  C      -0.820344      0.680359      2.733206
  C      -1.402151     -0.313739      1.737503
  N      -0.744884     -0.253921      0.426435
  C      -1.306339      0.731178     -0.500693
  C      -2.373966      0.131960     -1.404845
  C       0.266506     -1.061826      0.092371
  C       0.725404     -2.076260      1.112585
  N       0.880758     -1.088639     -1.064206
  P       1.367188     -0.233343     -2.313689
  O       2.362175     -0.882469     -3.201797
  F       0.101948      0.214018     -3.196980
  O       1.779286      1.251870     -1.828515
  C       2.940501      1.422574     -1.021731
  H      -1.373469      0.628928      3.682097
  H       0.238931      0.466743      2.940707
  H      -0.893128      1.710231      2.352526
  H      -1.355738     -1.336717      2.128422
  H      -2.468537     -0.103534      1.568263
  H      -0.498392      1.191088     -1.079499
  H      -1.730749      1.539140      0.111938
  H      -2.765970      0.902097     -2.084631
  H      -1.957117     -0.680354     -2.015755
  H      -3.214287     -0.265968     -0.816205
  H      -0.045377     -2.848080      1.261065
  H       0.932000     -1.613537      2.086854
  H       1.635120     -2.554415      0.737013
  H       3.123429      2.500450     -0.937992
  H       3.812353      0.940023     -1.488874
  H       2.784849      1.002144     -0.015573
29
Coordinates from ORCA-job opt E -976.885427455862
  C      -0.828251      0.671581      2.738247
  C      -1.406599     -0.317613      1.735864
  N      -0.743049     -0.253941      0.427979
  C      -1.300384      0.733808     -0.498536
  C      -2.371768      0.140280     -1.401945
  C       0.269730     -1.061546      0.097104
  C       0.724426     -2.076880      1.118380
  N       0.889972     -1.087469     -1.056061
  P       1.370526     -0.239376     -2.312814
  O       2.366158     -0.891281     -3.197999
  F       0.102312      0.197612     -3.197069
  O       1.779351      1.250440     -1.839157
  C       2.941887      1.430940     -1.036697
  H      -1.387017      0.617847      3.683725
  H       0.229344      0.454763      2.951021
  H      -0.896583      1.703171      2.361344
  H      -1.363252     -1.342091      2.123195
  H      -2.471911     -0.105726      1.562067
  H      -0.490412      1.189739     -1.077499
  H      -1.720594      1.543712      0.114572
  H      -2.760675      0.913117     -2.080525
  H      -1.959840     -0.673597     -2.014117
  H      -3.213866     -0.253128     -0.812817
  H      -0.047006     -2.849103      1.261616
  H       0.925918     -1.615882      2.094513
  H       1.635927     -2.554465      0.746498
  H       3.120164      2.510085     -0.959300
  H       3.814635      0.949831     -1.503694
  H       2.790855      1.015175     -0.027894
29
Coordinates from ORCA-job opt E -976.885432063615
  C      -0.833398      0.668219      2.740291
  C      -1.409056     -0.319989      1.735356
  N      -0.742074     -0.254547      0.429232
  C      -1.296690      0.735010     -0.496901
  C      -2.369293      0.144808     -1.401071
  C       0.270999     -1.062179      0.099610
  C       0.723789     -2.078055      1.121438
  N       0.894952     -1.086934     -1.051504
  P       1.371382     -0.242159     -2.312212
  O       2.366510     -0.895774     -3.196601
  F       0.101104      0.190049     -3.195788
  O       1.778768      1.249950     -1.844109
  C       2.942783      1.435101     -1.044898
  H      -1.394717      0.613246      3.684227
  H       0.223544      0.450613      2.955535
  H      -0.900335      1.700498      2.365016
  H      -1.365556     -1.344721      2.121972
  H      -2.474055     -0.108832      1.559000
  H      -0.484991      1.189753     -1.074456
  H      -1.715806      1.545279      0.116535
  H      -2.755192      0.918974     -2.079889
  H      -1.960254     -0.670690     -2.012987
  H      -3.213116     -0.245218     -0.812120
  H      -0.048407     -2.849710      1.263613
  H       0.924437     -1.617505      2.097992
  H       1.635362     -2.556163      0.750452
  H       3.116524      2.514976     -0.967301
  H       3.816285      0.957931     -1.514546
  H       2.796500      1.018070     -0.035887
29
Coordinates from ORCA-job opt E -976.885436637592
  C      -0.835342      0.667977      2.740555
  C      -1.409934     -0.320661      1.735272
  N      -0.741398     -0.254945      0.429969
  C      -1.294850      0.735266     -0.496213
  C      -2.367678      0.146116     -1.400867
  C       0.271718     -1.062689      0.100745
  C       0.722436     -2.080011      1.122323
  N       0.898056     -1.086596     -1.049085
  P       1.371706     -0.242849     -2.311752
  O       2.366101     -0.897519     -3.196161
  F       0.099990      0.187421     -3.194018
  O       1.778384      1.250356     -1.846056
  C       2.943063      1.437413     -1.048137
  H      -1.397167      0.612661      3.684205
  H       0.221487      0.450309      2.956361
  H      -0.902073      1.700402      2.365664
  H      -1.365808     -1.345151      2.122395
  H      -2.474874     -0.110144      1.557934
  H      -0.482303      1.189893     -1.072742
  H      -1.714055      1.545566      0.117132
  H      -2.751497      0.920212     -2.080941
  H      -1.960169     -0.671140     -2.011449
  H      -3.212579     -0.241541     -0.811846
  H      -0.051281     -2.849973      1.265182
  H       0.924707     -1.619806      2.098757
  H       1.632917     -2.559822      0.750840
  H       3.112416      2.517718     -0.966962
  H       3.817695      0.965292     -1.520802
  H       2.800335      1.016246     -0.040302
29
Coordinates from ORCA-job opt E -976.885441516251
  C      -0.835365      0.668950      2.739822
  C      -1.409722     -0.320751      1.735318
  N      -0.741323     -0.255450      0.429974
  C      -1.294541      0.735047     -0.496097
  C      -2.367365      0.146070     -1.400898
  C       0.271897     -1.063005      0.100586
  C       0.722268     -2.080786      1.121949
  N       0.899004     -1.086228     -1.048825
  P       1.371466     -0.242425     -2.311998
  O       2.364860     -0.897799     -3.197036
  F       0.099118      0.188326     -3.192954
  O       1.778730      1.250811     -1.846742
  C       2.942642      1.437289     -1.047458
  H      -1.396531      0.613727      3.683870
  H       0.221736      0.452125      2.955124
  H      -0.902998      1.701107      2.364395
  H      -1.364925     -1.344917      2.123190
  H      -2.474796     -0.110782      1.558185
  H      -0.481846      1.189789     -1.072403
  H      -1.713761      1.545313      0.117257
  H      -2.750253      0.919753     -2.081927
  H      -1.960248     -0.672144     -2.010453
  H      -3.212658     -0.240721     -0.811855
  H      -0.051764     -2.850221      1.265695
  H       0.925578     -1.620406      2.098113
  H       1.632307     -2.561078      0.749990
  H       3.110896      2.517584     -0.964039
  H       3.818061      0.966760     -1.520242
  H       2.799533      1.014061     -0.040541
