42
Coordinates from ORCA-job opt E -1378.790027249488
  C           2.23229194603285     -1.46779028113778      2.38402963537601
  C           2.43836697386145     -0.81117577465148      1.03934387562785
  O           2.30142590709019      0.60634006965419      1.19740134360977
  P           2.66425267330411      1.68271817552181      0.04370996115668
  C           4.43566829323481      1.54902170649484     -0.21999896082798
  O           2.17143370026194      3.03230885723829      0.44976606675679
  S           1.81446363151874      0.99426294476128     -1.75223984797400
  C           0.23891395530282      1.91697947285872     -1.71465940430170
  C          -0.71987739371718      1.55666177956625     -0.58039066915940
  N          -1.04650354956744      0.15254929424904     -0.46241686627904
  C          -1.23236698947873     -0.26935790472065      0.93178369975059
  C          -1.28353698272117     -1.78424472777917      1.11035755749186
  C          -2.39064169557587      0.40310106348230      1.69002195503099
  C          -1.89489345436705     -0.34767567167649     -1.55184601494702
  C          -3.40702214413502     -0.31737895562771     -1.29596713537425
  C          -1.44289409181605     -1.70930015988607     -2.09123748282582
  H           2.32027928716265     -2.55898257379201      2.28049006037984
  H           2.98684491858038     -1.12418221396410      3.10647816902098
  H           1.23379946075698     -1.23853656623675      2.78430342408693
  H           3.43972529473521     -1.04838015220951      0.64221250375116
  H           1.69293204309499     -1.15411176859585      0.30340225384962
  H           4.73593144925849      2.29527839651284     -0.96762272030140
  H           4.71636798623039      0.54551909182271     -0.56968866716883
  H           4.93562289232477      1.75797713093409      0.73692148587584
  H           0.47326194562592      2.98954095258973     -1.66692924112435
  H          -0.19747654770363      1.71931474434316     -2.70508014304118
  H          -0.25925655461305      1.88904003728614      0.36230524106167
  H          -1.61510243233303      2.20193679675942     -0.72071723453263
  H          -0.30816449798271      0.06952049801564      1.43260821649358
  H          -2.21182580301728     -2.21944553406867      0.71055494180683
  H          -1.24582219763712     -2.02629550789185      2.18341862421979
  H          -0.43164420625634     -2.27771369220318      0.61958777490605
  H          -2.28564289073046      0.21234416592395      2.76970692544084
  H          -3.37366499864647      0.02228875535211      1.37861944848727
  H          -2.38707946459714      1.49458559203867      1.54771130667098
  H          -1.72071022556528      0.35882337399997     -2.37898409480347
  H          -3.94855596890899     -0.54473093082984     -2.22735441148758
  H          -3.71290908912979     -1.06229434903257     -0.54580643050627
  H          -3.73638520666996      0.67434610100105     -0.95038018289751
  H          -1.69009385607044     -2.53715443598781     -1.41217422333001
  H          -1.93497903303092     -1.91522740684104     -3.05486623898245
  H          -0.35453309410557     -1.71048037327366     -2.25297937098703
