42
Coordinates from ORCA-job opt E -1378.780011295690
  C       2.398536     -1.645706      2.131936
  C       2.473183     -0.849765      0.844799
  O       2.327674      0.524275      1.156622
  P       2.649291      1.645969      0.036782
  C       4.428849      1.546001     -0.156625
  O       2.242075      3.018243      0.499414
  S       1.754166      1.205678     -1.795140
  C       0.144998      2.050680     -1.708344
  C      -0.753777      1.612662     -0.533147
  N      -1.004066      0.158641     -0.392367
  C      -1.341036     -0.195591      1.006303
  C      -1.437151     -1.697800      1.288790
  C      -2.548966      0.525522      1.626084
  C      -1.779047     -0.403312     -1.516262
  C      -3.302566     -0.357459     -1.399213
  C      -1.304246     -1.814573     -1.886865
  H       2.486046     -2.717526      1.933559
  H       3.199862     -1.346568      2.815694
  H       1.452719     -1.457805      2.650233
  H       3.433223     -1.030985      0.354861
  H       1.670535     -1.157078      0.169519
  H       4.775389      2.325678     -0.841203
  H       4.738793      0.579774     -0.562187
  H       4.922678      1.692707      0.808012
  H       0.336952      3.125996     -1.624216
  H      -0.361692      1.905449     -2.666676
  H      -0.281596      1.991588      0.381991
  H      -1.708657      2.146943     -0.618786
  H      -0.474871      0.130111      1.599506
  H      -2.350103     -2.139760      0.881266
  H      -1.448817     -1.878863      2.370061
  H      -0.570709     -2.233671      0.888255
  H      -2.596259      0.317068      2.701589
  H      -3.499730      0.201805      1.198269
  H      -2.478029      1.612265      1.522523
  H      -1.546677      0.182073     -2.412544
  H      -3.761738     -0.639214     -2.354020
  H      -3.683557     -1.053040     -0.647114
  H      -3.652868      0.652101     -1.161992
  H      -1.665311     -2.581841     -1.198992
  H      -1.672991     -2.084006     -2.883655
  H      -0.210507     -1.866662     -1.923324
42
Coordinates from ORCA-job opt E -1378.786797598668
  C       2.096641     -1.499520      2.246855
  C       2.230374     -0.788048      0.917334
  O       2.197419      0.621537      1.150029
  P       2.609818      1.682623     -0.002269
  C       4.385128      1.497072     -0.189482
  O       2.207505      3.074147      0.391597
  S       1.750700      1.134015     -1.822348
  C       0.163833      2.009835     -1.713757
  C      -0.713854      1.583952     -0.536762
  N      -0.941390      0.149396     -0.426221
  C      -1.176734     -0.246808      0.968984
  C      -1.227475     -1.759568      1.183304
  C      -2.354677      0.433233      1.687702
  C      -1.761543     -0.382340     -1.522038
  C      -3.281063     -0.340841     -1.324895
  C      -1.300390     -1.771451     -1.985534
  H       2.093336     -2.588503      2.101383
  H       2.930869     -1.235331      2.914087
  H       1.163521     -1.208331      2.752314
  H       3.177392     -1.075066      0.431482
  H       1.398105     -1.062610      0.249425
  H       4.757854      2.235108     -0.912556
  H       4.667243      0.494025     -0.542598
  H       4.862767      1.678515      0.783109
  H       0.368231      3.086897     -1.634259
  H      -0.336601      1.848499     -2.679037
  H      -0.216984      1.933715      0.381256
  H      -1.667725      2.144898     -0.606835
  H      -0.267767      0.086101      1.502581
  H      -2.164859     -2.205420      0.817746
  H      -1.160053     -1.980489      2.258983
  H      -0.381126     -2.262502      0.692713
  H      -2.316711      0.199083      2.763042
  H      -3.331240      0.092815      1.316260
  H      -2.316633      1.529153      1.597448
  H      -1.563683      0.266976     -2.389177
  H      -3.787392     -0.580706     -2.272867
  H      -3.625083     -1.073584     -0.579813
  H      -3.620151      0.660573     -1.018605
  H      -1.617657     -2.576461     -1.308606
  H      -1.725062     -1.997590     -2.976811
  H      -0.204882     -1.807003     -2.079769
42
Coordinates from ORCA-job opt E -1378.788004778588
  C       2.460132     -1.675546      2.163624
  C       2.533789     -0.904804      0.865264
  O       2.333330      0.492846      1.145918
  P       2.615976      1.657108      0.054152
  C       4.389740      1.635164     -0.226715
  O       2.062326      2.959773      0.539994
  S       1.784479      1.059253     -1.768309
  C       0.191292      1.932980     -1.648350
  C      -0.739770      1.554030     -0.502033
  N      -1.015765      0.148893     -0.361740
  C      -1.364410     -0.183633      1.019507
  C      -1.463608     -1.685025      1.276220
  C      -2.585277      0.545216      1.607887
  C      -1.767490     -0.395750     -1.493670
  C      -3.297329     -0.285243     -1.407469
  C      -1.331384     -1.811094     -1.896463
  H       2.592950     -2.752172      1.968932
  H       3.247231     -1.344508      2.862784
  H       1.480241     -1.528105      2.648968
  H       3.520322     -1.058371      0.383342
  H       1.749864     -1.235208      0.158226
  H       4.651632      2.442161     -0.928577
  H       4.746448      0.674466     -0.638029
  H       4.875326      1.817198      0.745958
  H       0.403290      3.011763     -1.583340
  H      -0.271755      1.753588     -2.632726
  H      -0.281403      1.906964      0.436679
  H      -1.665725      2.163962     -0.639931
  H      -0.491995      0.171139      1.602069
  H      -2.373295     -2.132086      0.836217
  H      -1.504751     -1.858970      2.364395
  H      -0.583430     -2.221493      0.885428
  H      -2.631098      0.363151      2.695977
  H      -3.537231      0.195044      1.173474
  H      -2.523860      1.637668      1.459762
  H      -1.471221      0.242677     -2.344612
  H      -3.742837     -0.527201     -2.388386
  H      -3.723978     -0.987229     -0.668641
  H      -3.616848      0.737691     -1.140472
  H      -1.727536     -2.589390     -1.223073
  H      -1.695421     -2.041782     -2.913973
  H      -0.230953     -1.885125     -1.904875
42
Coordinates from ORCA-job opt E -1378.789448515732
  C       2.312290     -1.553761      2.238188
  C       2.449053     -0.830173      0.919515
  O       2.323744      0.581136      1.155608
  P       2.670352      1.697274      0.033648
  C       4.438010      1.564668     -0.253637
  O       2.193134      3.038243      0.490493
  S       1.795808      1.086521     -1.770071
  C       0.205032      1.971372     -1.646072
  C      -0.739707      1.563263     -0.516379
  N      -1.027644      0.148223     -0.396175
  C      -1.309285     -0.234053      0.995496
  C      -1.375782     -1.743492      1.212904
  C      -2.507796      0.456860      1.670038
  C      -1.803812     -0.393901     -1.520435
  C      -3.331977     -0.302036     -1.403582
  C      -1.363814     -1.799580     -1.945570
  H       2.394148     -2.638799      2.076864
  H       3.100820     -1.243649      2.940644
  H       1.333596     -1.345801      2.696937
  H       3.428330     -1.048551      0.458119
  H       1.661037     -1.132653      0.210617
  H       4.738730      2.334177     -0.978165
  H       4.729843      0.575540     -0.636577
  H       4.938740      1.745013      0.709720
  H       0.422457      3.045144     -1.554279
  H      -0.244946      1.818161     -2.638244
  H      -0.285869      1.896114      0.429417
  H      -1.654711      2.185402     -0.647045
  H      -0.415771      0.114371      1.544965
  H      -2.291836     -2.189872      0.795029
  H      -1.374034     -1.950605      2.294465
  H      -0.505762     -2.252757      0.772908
  H      -2.484191      0.254123      2.752891
  H      -3.473448      0.095494      1.287782
  H      -2.477859      1.549790      1.539893
  H      -1.533551      0.251538     -2.369996
  H      -3.793158     -0.545745     -2.374160
  H      -3.733444     -1.009429     -0.660731
  H      -3.657466      0.713078     -1.126777
  H      -1.727765     -2.584598     -1.266918
  H      -1.756128     -2.026915     -2.950076
  H      -0.265369     -1.859133     -1.987858
42
Coordinates from ORCA-job opt E -1378.789761914712
  C       2.188173     -1.459080      2.327352
  C       2.379346     -0.789478      0.987595
  O       2.274242      0.628336      1.168002
  P       2.669306      1.701828      0.021493
  C       4.437997      1.524748     -0.232176
  O       2.215622      3.063072      0.436709
  S       1.804548      1.058617     -1.779946
  C       0.221033      1.960628     -1.690144
  C      -0.713967      1.554829     -0.552316
  N      -1.009186      0.138395     -0.443471
  C      -1.225064     -0.273222      0.953518
  C      -1.268042     -1.785813      1.154289
  C      -2.407928      0.392602      1.676849
  C      -1.844839     -0.373220     -1.539067
  C      -3.361087     -0.306293     -1.316110
  C      -1.416366     -1.754188     -2.046354
  H       2.258439     -2.549223      2.209434
  H       2.957997     -1.135367      3.041230
  H       1.199979     -1.221425      2.745508
  H       3.365245     -1.039682      0.565412
  H       1.609269     -1.103238      0.267335
  H       4.764812      2.266468     -0.972066
  H       4.706515      0.519711     -0.581658
  H       4.930101      1.720077      0.731087
  H       0.442771      3.032904     -1.606232
  H      -0.226144      1.797760     -2.681080
  H      -0.242975      1.877276      0.388448
  H      -1.621111      2.185784     -0.666275
  H      -0.316124      0.078338      1.473096
  H      -2.190154     -2.234316      0.759193
  H      -1.232637     -2.008446      2.231085
  H      -0.408635     -2.279642      0.680308
  H      -2.339044      0.188153      2.755874
  H      -3.378994      0.014406      1.329514
  H      -2.402671      1.484483      1.548677
  H      -1.638230      0.308281     -2.377770
  H      -3.885458     -0.521808     -2.259058
  H      -3.701003     -1.042980     -0.573748
  H      -3.676268      0.692428     -0.980236
  H      -1.718668     -2.568094     -1.375686
  H      -1.876469     -1.949708     -3.026466
  H      -0.324330     -1.793898     -2.168753
42
Coordinates from ORCA-job opt E -1378.789909655090
  C       2.240540     -1.507679      2.320904
  C       2.412181     -0.826222      0.984045
  O       2.271926      0.588116      1.171670
  P       2.642201      1.682320      0.036314
  C       4.414091      1.547491     -0.222001
  O       2.157345      3.027579      0.466943
  S       1.792360      1.038151     -1.773203
  C       0.213998      1.951521     -1.701590
  C      -0.724884      1.566844     -0.560612
  N      -1.023356      0.155166     -0.440211
  C      -1.238598     -0.250734      0.956776
  C      -1.292218     -1.763233      1.154490
  C      -2.412111      0.426530      1.685881
  C      -1.845222     -0.367410     -1.540011
  C      -3.364777     -0.305235     -1.338406
  C      -1.402932     -1.752232     -2.024070
  H       2.338537     -2.595625      2.196935
  H       3.004320     -1.168128      3.034865
  H       1.247319     -1.297765      2.743039
  H       3.404365     -1.050212      0.559396
  H       1.649461     -1.157242      0.261756
  H       4.722315      2.305077     -0.954473
  H       4.702143      0.551134     -0.583604
  H       4.904264      1.742689      0.742707
  H       0.442596      3.023870     -1.632195
  H      -0.232118      1.775801     -2.691519
  H      -0.256281      1.899713      0.378197
  H      -1.630728      2.198694     -0.686338
  H      -0.323960      0.093950      1.471219
  H      -2.218084     -2.203854      0.756603
  H      -1.259820     -1.989007      2.231035
  H      -0.436311     -2.262963      0.678216
  H      -2.333565      0.232124      2.766742
  H      -3.388194      0.049087      1.351376
  H      -2.403442      1.517868      1.546789
  H      -1.629138      0.307172     -2.383336
  H      -3.875726     -0.535603     -2.285874
  H      -3.711226     -1.034508     -0.590971
  H      -3.689244      0.696550     -1.019338
  H      -1.705080     -2.559078     -1.342879
  H      -1.853886     -1.965110     -3.005582
  H      -0.309062     -1.785603     -2.136288
42
Coordinates from ORCA-job opt E -1378.789969129477
  C       2.242891     -1.492966      2.334936
  C       2.426554     -0.817226      0.996740
  O       2.288659      0.598828      1.176215
  P       2.658791      1.688417      0.036697
  C       4.429090      1.546691     -0.229502
  O       2.176796      3.035491      0.463650
  S       1.802643      1.032033     -1.766842
  C       0.221130      1.942919     -1.696041
  C      -0.725110      1.559184     -0.559042
  N      -1.030308      0.150428     -0.442180
  C      -1.244378     -0.258536      0.952615
  C      -1.298892     -1.771410      1.145565
  C      -2.418777      0.418286      1.681117
  C      -1.856979     -0.364368     -1.541276
  C      -3.375268     -0.306865     -1.327717
  C      -1.414144     -1.744216     -2.039723
  H       2.341022     -2.581972      2.215813
  H       3.001851     -1.151238      3.053907
  H       1.245626     -1.280896      2.747845
  H       3.422048     -1.046011      0.579826
  H       1.668677     -1.150271      0.268837
  H       4.734873      2.300902     -0.967062
  H       4.709850      0.546561     -0.589158
  H       4.925188      1.743756      0.732289
  H       0.449203      3.015838     -1.627252
  H      -0.221099      1.765487     -2.687698
  H      -0.261982      1.890734      0.382832
  H      -1.629284      2.194478     -0.689719
  H      -0.329874      0.085977      1.467621
  H      -2.221872     -2.211186      0.737865
  H      -1.276238     -2.000200      2.222098
  H      -0.438656     -2.270033      0.674826
  H      -2.339187      0.227793      2.763172
  H      -3.394778      0.037691      1.347390
  H      -2.411777      1.509745      1.537869
  H      -1.647918      0.319422     -2.379315
  H      -3.893843     -0.533477     -2.272539
  H      -3.714013     -1.041059     -0.580556
  H      -3.699186      0.692938     -0.999971
  H      -1.705773     -2.557013     -1.359818
  H      -1.874715     -1.952778     -3.018478
  H      -0.320841     -1.771877     -2.162441
42
Coordinates from ORCA-job opt E -1378.790005610165
  C       2.235355     -1.484058      2.355988
  C       2.431926     -0.815852      1.015765
  O       2.288704      0.600324      1.184571
  P       2.658992      1.686145      0.041960
  C       4.430487      1.549959     -0.219771
  O       2.169811      3.032813      0.461173
  S       1.810611      1.014526     -1.761141
  C       0.230029      1.929361     -1.708430
  C      -0.722262      1.556259     -0.572180
  N      -1.037007      0.150036     -0.453421
  C      -1.235356     -0.262739      0.942320
  C      -1.293358     -1.775831      1.131644
  C      -2.398441      0.417576      1.686086
  C      -1.876080     -0.357918     -1.546500
  C      -3.390991     -0.316492     -1.307952
  C      -1.427524     -1.727076     -2.069468
  H       2.338270     -2.573432      2.244531
  H       2.985839     -1.135610      3.080647
  H       1.233169     -1.272738      2.757301
  H       3.432461     -1.044993      0.611089
  H       1.683694     -1.156655      0.281201
  H       4.733836      2.302296     -0.960212
  H       4.711521      0.548508     -0.575719
  H       4.926352      1.751562      0.741115
  H       0.460216      3.002435     -1.649277
  H      -0.207988      1.741881     -2.700053
  H      -0.260522      1.889987      0.369536
  H      -1.622813      2.195864     -0.708073
  H      -0.313490      0.076942      1.447218
  H      -2.220175     -2.210697      0.727507
  H      -1.266194     -2.008677      2.207220
  H      -0.438042     -2.276208      0.653635
  H      -2.303211      0.232748      2.767895
  H      -3.379406      0.036256      1.367996
  H      -2.392152      1.508332      1.537301
  H      -1.687051      0.338831     -2.378597
  H      -3.923680     -0.540725     -2.245441
  H      -3.710239     -1.059239     -0.560714
  H      -3.718028      0.677758     -0.966699
  H      -1.694745     -2.550092     -1.391951
  H      -1.905870     -1.931435     -3.040646
  H      -0.336647     -1.739931     -2.214060
42
Coordinates from ORCA-job opt E -1378.790013810718
  C       2.235957     -1.475920      2.375909
  C       2.435896     -0.815026      1.032454
  O       2.294808      0.601387      1.193366
  P       2.661620      1.681840      0.044957
  C       4.433196      1.548430     -0.218158
  O       2.169916      3.030020      0.456415
  S       1.812924      0.997395     -1.753975
  C       0.236864      1.920545     -1.715821
  C      -0.720289      1.558878     -0.580112
  N      -1.044011      0.154430     -0.460145
  C      -1.232905     -0.264748      0.934710
  C      -1.281293     -1.779131      1.116381
  C      -2.397078      0.405821      1.685819
  C      -1.890488     -0.348615     -1.549608
  C      -3.402861     -0.315627     -1.295950
  C      -1.438824     -1.712654     -2.083388
  H       2.335711     -2.565939      2.270289
  H       2.987058     -1.125899      3.098906
  H       1.234719     -1.259081      2.776179
  H       3.436554     -1.048397      0.631229
  H       1.689386     -1.159789      0.298233
  H       4.733221      2.297663     -0.962852
  H       4.712305      0.545621     -0.571063
  H       4.932850      1.754052      0.739628
  H       0.471760      2.992927     -1.665804
  H      -0.199751      1.724959     -2.706439
  H      -0.259152      1.894393      0.361166
  H      -1.617250      2.201995     -0.720494
  H      -0.311015      0.077519      1.437597
  H      -2.203988     -2.217624      0.707333
  H      -1.255434     -2.018555      2.190392
  H      -0.422186     -2.271247      0.636860
  H      -2.294612      0.222589      2.767040
  H      -3.376643      0.016925      1.372967
  H      -2.399521      1.496361      1.536886
  H      -1.713467      0.354191     -2.379221
  H      -3.944206     -0.545179     -2.226910
  H      -3.710122     -1.057756     -0.543499
  H      -3.731409      0.677639     -0.954002
  H      -1.688816     -2.538819     -1.403219
  H      -1.929281     -1.919653     -3.047705
  H      -0.350147     -1.715920     -2.242957
42
Coordinates from ORCA-job opt E -1378.790032432760
  C       2.232100     -1.474399      2.375239
  C       2.435128     -0.813369      1.032312
  O       2.296577      0.603160      1.193902
  P       2.662672      1.682827      0.044546
  C       4.434129      1.548517     -0.218880
  O       2.171399      3.031758      0.454502
  S       1.813474      0.997850     -1.753574
  C       0.236982      1.919575     -1.714498
  C      -0.720595      1.558132     -0.579329
  N      -1.045144      0.153692     -0.459561
  C      -1.233324     -0.265692      0.935372
  C      -1.284755     -1.780145      1.116956
  C      -2.393392      0.407882      1.690051
  C      -1.890643     -0.349257     -1.550024
  C      -3.403307     -0.319516     -1.297754
  C      -1.436065     -1.711415     -2.086142
  H       2.328080     -2.564646      2.269099
  H       2.983713     -1.127296      3.099053
  H       1.231483     -1.253958      2.775016
  H       3.435791     -1.048689      0.632398
  H       1.688926     -1.155936      0.297009
  H       4.734385      2.296978     -0.964229
  H       4.712940      0.545601     -0.571538
  H       4.934454      1.754281      0.738482
  H       0.471081      2.992122     -1.665563
  H      -0.199929      1.722858     -2.704812
  H      -0.259907      1.893161      0.362350
  H      -1.617201      2.201450     -0.719830
  H      -0.309687      0.073902      1.436745
  H      -2.210161     -2.216497      0.712040
  H      -1.254539     -2.019975      2.190737
  H      -0.429209     -2.274201      0.633300
  H      -2.288678      0.223186      2.770763
  H      -3.375071      0.022789      1.379756
  H      -2.392466      1.498585      1.542311
  H      -1.714807      0.355409     -2.378334
  H      -3.943087     -0.548851     -2.229632
  H      -3.710133     -1.063179     -0.546830
  H      -3.734006      0.672658     -0.954851
  H      -1.684241     -2.538943     -1.407093
  H      -1.925610     -1.918504     -3.050795
  H      -0.347357     -1.711908     -2.245275
42
Coordinates from ORCA-job opt E -1378.790029557832
  C       2.234809     -1.475974      2.375874
  C       2.438431     -0.814584      1.033178
  O       2.298255      0.601878      1.195241
  P       2.662014      1.682120      0.045584
  C       4.433720      1.550408     -0.217436
  O       2.168522      3.030513      0.454967
  S       1.814368      0.997118     -1.752853
  C       0.238199      1.918727     -1.714691
  C      -0.720739      1.558095     -0.580699
  N      -1.046066      0.153725     -0.460707
  C      -1.234253     -0.265008      0.934226
  C      -1.286955     -1.779461      1.116122
  C      -2.392970      0.409931      1.689576
  C      -1.892223     -0.349492     -1.550547
  C      -3.404698     -0.320810     -1.296925
  C      -1.437417     -1.711287     -2.087262
  H       2.329702     -2.566290      2.269421
  H       2.986517     -1.129725      3.100018
  H       1.234484     -1.254320      2.775725
  H       3.439837     -1.048842      0.634448
  H       1.693315     -1.157461      0.296975
  H       4.733299      2.299217     -0.962753
  H       4.714643      0.548115     -0.570290
  H       4.933602      1.756724      0.740053
  H       0.472190      2.991326     -1.666469
  H      -0.198063      1.721358     -2.705195
  H      -0.260879      1.892542      0.361643
  H      -1.616746      2.201979     -0.722119
  H      -0.310181      0.073850      1.435349
  H      -2.213841     -2.215116      0.713731
  H      -1.253909     -2.019186      2.189848
  H      -0.433277     -2.274415      0.630068
  H      -2.288545      0.223431      2.770024
  H      -3.375581      0.027466      1.379040
  H      -2.389696      1.500876      1.543375
  H      -1.717864      0.355587     -2.378779
  H      -3.944892     -0.550284     -2.228548
  H      -3.710619     -1.064885     -0.546008
  H      -3.735732      0.671076     -0.953429
  H      -1.684174     -2.538719     -1.407563
  H      -1.927739     -1.919285     -3.051313
  H      -0.348850     -1.710914     -2.247505
42
Coordinates from ORCA-job opt E -1378.790035366302
  C       2.230359     -1.470917      2.379207
  C       2.435674     -0.811930      1.035569
  O       2.299888      0.605268      1.196241
  P       2.663648      1.682961      0.044120
  C       4.435081      1.548731     -0.219335
  O       2.171499      3.032659      0.450923
  S       1.814514      0.996521     -1.752754
  C       0.238799      1.918322     -1.713901
  C      -0.720038      1.557679     -0.580023
  N      -1.045869      0.153368     -0.461187
  C      -1.232929     -0.267233      0.933232
  C      -1.285430     -1.782024      1.112774
  C      -2.390874      0.406609      1.690612
  C      -1.892842     -0.348713     -1.550847
  C      -3.405118     -0.321155     -1.295746
  C      -1.437923     -1.709679     -2.089325
  H       2.319362     -2.561843      2.273817
  H       2.984585     -1.127772      3.102217
  H       1.231751     -1.243257      2.780013
  H       3.436384     -1.049579      0.637063
  H       1.689239     -1.152948      0.299816
  H       4.735490      2.295736     -0.966163
  H       4.715188      0.545626     -0.570630
  H       4.935575      1.756064      0.737632
  H       0.472657      2.990975     -1.666228
  H      -0.197816      1.720527     -2.704235
  H      -0.259976      1.890600      0.362777
  H      -1.615594      2.202254     -0.720796
  H      -0.308623      0.070948      1.434395
  H      -2.213046     -2.217217      0.711401
  H      -1.250086     -2.023446      2.186046
  H      -0.432688     -2.276129      0.624166
  H      -2.286235      0.216701      2.770472
  H      -3.374092      0.026214      1.379456
  H      -2.386471      1.498001      1.547606
  H      -1.719782      0.357741     -2.378267
  H      -3.945785     -0.550236     -2.227207
  H      -3.710084     -1.066035     -0.545202
  H      -3.736418      0.670237     -0.951083
  H      -1.682963     -2.537500     -1.409414
  H      -1.929452     -1.917853     -3.052723
  H      -0.349557     -1.708277     -2.251095
42
Coordinates from ORCA-job opt E -1378.790026373233
  C       2.231705     -1.469107      2.382705
  C       2.437642     -0.811794      1.038332
  O       2.300864      0.605597      1.197108
  P       2.663914      1.682311      0.043818
  C       4.435281      1.548142     -0.220069
  O       2.171575      3.032153      0.449801
  S       1.814158      0.994556     -1.752314
  C       0.238877      1.917285     -1.714362
  C      -0.720143      1.557425     -0.580328
  N      -1.046745      0.153357     -0.461892
  C      -1.232929     -0.268091      0.932424
  C      -1.283935     -1.782973      1.111467
  C      -2.391242      0.404496      1.690420
  C      -1.894464     -0.347559     -1.551536
  C      -3.406632     -0.319579     -1.295693
  C      -1.440271     -1.708232     -2.091419
  H       2.320547     -2.560189      2.278719
  H       2.985742     -1.125195      3.105559
  H       1.232977     -1.240707      2.782874
  H       3.438890     -1.049167      0.640976
  H       1.692066     -1.154287      0.302354
  H       4.735455      2.294570     -0.967577
  H       4.715452      0.544754     -0.570564
  H       4.935949      1.756333      0.736633
  H       0.473206      2.989867     -1.667169
  H      -0.197713      1.719171     -2.704655
  H      -0.259847      1.889921      0.362497
  H      -1.615315      2.202608     -0.721078
  H      -0.308813      0.070813      1.433450
  H      -2.211443     -2.218798      0.710533
  H      -1.247625     -2.024725      2.184643
  H      -0.431108     -2.276184      0.622059
  H      -2.286175      0.214103      2.770168
  H      -3.374293      0.023554      1.379298
  H      -2.387685      1.495961      1.547906
  H      -1.721535      0.359626     -2.378401
  H      -3.947784     -0.547984     -2.227045
  H      -3.711508     -1.064750     -0.545384
  H      -3.737430      0.671747     -0.950345
  H      -1.685130     -2.536482     -1.411970
  H      -1.932534     -1.915491     -3.054664
  H      -0.352001     -1.707058     -2.253884
42
Coordinates from ORCA-job opt E -1378.790022660103
  C       2.231693     -1.468228      2.383869
  C       2.438628     -0.811468      1.039383
  O       2.300749      0.605954      1.197329
  P       2.663812      1.682497      0.043873
  C       4.435314      1.548969     -0.219395
  O       2.170750      3.032082      0.449698
  S       1.814675      0.994112     -1.752382
  C       0.239153      1.916711     -1.715135
  C      -0.719768      1.556855     -0.580880
  N      -1.046666      0.152849     -0.462623
  C      -1.232136     -0.268993      0.931639
  C      -1.283387     -1.783895      1.110180
  C      -2.390051      0.403602      1.690285
  C      -1.895280     -0.347468     -1.551822
  C      -3.407307     -0.318045     -1.295262
  C      -1.442653     -1.708700     -2.091642
  H       2.320861     -2.559340      2.280454
  H       2.985082     -1.123850      3.107172
  H       1.232539     -1.239903      2.783051
  H       3.440474     -1.048207      0.643175
  H       1.694070     -1.154831      0.302759
  H       4.735569      2.295343     -0.966917
  H       4.716069      0.545560     -0.569348
  H       4.935303      1.757707      0.737549
  H       0.473388      2.989322     -1.667965
  H      -0.197223      1.718493     -2.705476
  H      -0.259172      1.889221      0.361840
  H      -1.614838      2.202295     -0.721379
  H      -0.307714      0.069682      1.432225
  H      -2.211539     -2.219159      0.710126
  H      -1.245934     -2.026015      2.183236
  H      -0.431342     -2.277288      0.619580
  H      -2.284621      0.212879      2.769940
  H      -3.373270      0.022900      1.379347
  H      -2.386398      1.495093      1.547989
  H      -1.721952      0.359394     -2.378857
  H      -3.949113     -0.545910     -2.226366
  H      -3.712470     -1.062971     -0.544813
  H      -3.737054      0.673566     -0.949721
  H      -1.688372     -2.536671     -1.412159
  H      -1.935434     -1.915306     -3.054772
  H      -0.354434     -1.708841     -2.254386
42
Coordinates from ORCA-job opt E -1378.790027249488
  C       2.232292     -1.467790      2.384030
  C       2.438367     -0.811176      1.039344
  O       2.301426      0.606340      1.197401
  P       2.664253      1.682718      0.043710
  C       4.435668      1.549022     -0.219999
  O       2.171434      3.032309      0.449766
  S       1.814464      0.994263     -1.752240
  C       0.238914      1.916979     -1.714659
  C      -0.719877      1.556662     -0.580391
  N      -1.046504      0.152549     -0.462417
  C      -1.232367     -0.269358      0.931784
  C      -1.283537     -1.784245      1.110358
  C      -2.390642      0.403101      1.690022
  C      -1.894893     -0.347676     -1.551846
  C      -3.407022     -0.317379     -1.295967
  C      -1.442894     -1.709300     -2.091237
  H       2.320279     -2.558983      2.280490
  H       2.986845     -1.124182      3.106478
  H       1.233799     -1.238537      2.784303
  H       3.439725     -1.048380      0.642213
  H       1.692932     -1.154112      0.303402
  H       4.735931      2.295278     -0.967623
  H       4.716368      0.545519     -0.569689
  H       4.935623      1.757977      0.736921
  H       0.473262      2.989541     -1.666929
  H      -0.197477      1.719315     -2.705080
  H      -0.259257      1.889040      0.362305
  H      -1.615102      2.201937     -0.720717
  H      -0.308164      0.069520      1.432608
  H      -2.211826     -2.219446      0.710555
  H      -1.245822     -2.026296      2.183419
  H      -0.431644     -2.277714      0.619588
  H      -2.285643      0.212344      2.769707
  H      -3.373665      0.022289      1.378619
  H      -2.387079      1.494586      1.547711
  H      -1.720710      0.358823     -2.378984
  H      -3.948556     -0.544731     -2.227354
  H      -3.712909     -1.062294     -0.545806
  H      -3.736385      0.674346     -0.950380
  H      -1.690094     -2.537154     -1.412174
  H      -1.934979     -1.915227     -3.054866
  H      -0.354533     -1.710480     -2.252979
