42
Coordinates from ORCA-job opt E -1378.783107875663
  C           5.22007911635720     -2.42618224462027      1.44603330231601
  C           5.07330772187346     -1.03710217649113      0.87158189563189
  O           3.68602523394918     -0.66392006323791      0.92879330905164
  P           3.12446365861984      0.52445868273150     -0.01380757583779
  C           3.83624463693419      2.05177743710656      0.61972481010064
  O           3.33133871866982      0.33884191957870     -1.48287654866082
  S           1.12729573974835      0.41744412267192      0.59710138397472
  C           0.37768019814887      1.33015957547692     -0.80405488874968
  C          -1.10474119065065      1.55948423121136     -0.51895324920028
  N          -1.82556857091723      0.34741002087413     -0.18817653428684
  C          -2.82345562561729      0.53035166370791      0.87148407390354
  C          -3.32578781511886     -0.78401875324043      1.46359840263251
  C          -3.99941070127121      1.46379247831812      0.53441597982885
  C          -2.04951664732251     -0.53353371711967     -1.34218458588736
  C          -3.39789723898669     -0.37324909174061     -2.05490804906333
  C          -1.73994801479990     -2.00676005610903     -1.05237726763160
  H           6.27722414412151     -2.72839844870623      1.42775541292557
  H           4.86880907067075     -2.45507647215897      2.48790418800687
  H           4.63864536987775     -3.15196528333847      0.85888842483541
  H           5.66424752792728     -0.30591028868529      1.44785676120085
  H           5.41369628747173     -1.00438285112515     -0.17613544242645
  H           3.33322762674951      2.90263433178308      0.13916772706563
  H           4.90529297061796      2.07989621887309      0.36160242007698
  H           3.70776569198094      2.10759882082435      1.70878717012246
  H           0.88079411619533      2.30054597894237     -0.92807561710593
  H           0.54261739120943      0.74199781772015     -1.71737314838911
  H          -1.18575354673582      2.25610817702648      0.33015264063724
  H          -1.52586247368511      2.09391185984154     -1.39725612596314
  H          -2.26352516950742      1.03031312248733      1.68247453096285
  H          -3.96844712329134     -1.33975233937051      0.76416951218372
  H          -3.92550344062425     -0.57416905532402      2.36210721908357
  H          -2.48693913034406     -1.43315501655296      1.75470402461347
  H          -4.53967715453096      1.72990430460681      1.45658530230871
  H          -4.72215671163622      0.99829066980733     -0.15034808920227
  H          -3.64983051679474      2.40157435586504      0.07564393084043
  H          -1.28747666874383     -0.22068481111695     -2.07396627797221
  H          -3.39241432359028     -0.94353248240107     -2.99681911971520
  H          -4.23314840167830     -0.75087234391545     -1.44563920081867
  H          -3.59969238008225      0.68034445541500     -2.30084203689840
  H          -2.51137816061079     -2.48838514229363     -0.43538489428837
  H          -1.67535773393223     -2.56980671814254     -1.99677493590405
  H          -0.77526648065115     -2.09598289917939     -0.53118370430205
