42
Coordinates from ORCA-job opt E -1378.769738108298
  C       5.838540     -2.093582      1.588209
  C       5.170609     -1.230760      0.537884
  O       3.968796     -0.706762      1.078080
  P       3.181055      0.409357      0.210701
  C       3.998849      1.928555      0.691832
  O       3.279555      0.168004     -1.269634
  S       1.197739      0.508823      0.834276
  C       0.354485      1.293181     -0.575149
  C      -1.150833      1.509998     -0.330492
  N      -1.933946      0.275520     -0.114369
  C      -3.041354      0.475241      0.840074
  C      -3.726406     -0.811432      1.308407
  C      -4.096314      1.517234      0.439290
  C      -2.112266     -0.517657     -1.344075
  C      -3.378150     -0.253226     -2.159187
  C      -1.940196     -2.017729     -1.075937
  H       6.769801     -2.521888      1.207202
  H       6.060603     -1.506037      2.485200
  H       5.175236     -2.908167      1.897371
  H       5.835272     -0.412158      0.245545
  H       4.934754     -1.830401     -0.346732
  H       3.524084      2.786103      0.206731
  H       5.052095      1.911014      0.399324
  H       3.944355      2.069730      1.774960
  H       0.828548      2.265903     -0.744988
  H       0.532921      0.690244     -1.469302
  H      -1.234503      2.174252      0.540654
  H      -1.571951      2.072444     -1.173818
  H      -2.569525      0.869225      1.752163
  H      -4.351797     -1.257975      0.531118
  H      -4.378858     -0.602552      2.164333
  H      -2.990365     -1.550343      1.642582
  H      -4.740147      1.744748      1.297129
  H      -4.749386      1.168864     -0.363583
  H      -3.642533      2.462442      0.126300
  H      -1.286027     -0.278755     -2.024577
  H      -3.321074     -0.773700     -3.122368
  H      -4.280330     -0.612600     -1.657792
  H      -3.491924      0.813245     -2.378649
  H      -2.801312     -2.462314     -0.572473
  H      -1.810795     -2.556174     -2.022106
  H      -1.047305     -2.209916     -0.470740
42
Coordinates from ORCA-job opt E -1378.779151233544
  C       5.524123     -2.209082      1.562354
  C       4.961895     -1.292016      0.498565
  O       3.785330     -0.666057      1.019563
  P       3.095521      0.515130      0.155846
  C       3.933383      2.004493      0.707829
  O       3.175931      0.301655     -1.328215
  S       1.125431      0.594487      0.823946
  C       0.344114      1.380415     -0.620565
  C      -1.147405      1.569126     -0.374181
  N      -1.854749      0.323702     -0.114673
  C      -2.945357      0.491676      0.851786
  C      -3.524696     -0.826397      1.365260
  C      -4.073767      1.452983      0.440966
  C      -2.002659     -0.504808     -1.316312
  C      -3.290250     -0.312606     -2.125209
  C      -1.733725     -1.990574     -1.040596
  H       6.427654     -2.713997      1.193839
  H       5.781779     -1.641244      2.469037
  H       4.784297     -2.972136      1.847160
  H       5.705789     -0.526576      0.222423
  H       4.699481     -1.863099     -0.404999
  H       3.472467      2.888421      0.244594
  H       4.992699      1.968567      0.415481
  H       3.870184      2.103689      1.801034
  H       0.811245      2.361748     -0.788772
  H       0.541075      0.759874     -1.506017
  H      -1.261695      2.242129      0.490239
  H      -1.570951      2.104848     -1.246012
  H      -2.464656      0.951858      1.733868
  H      -4.136021     -1.341472      0.609018
  H      -4.174659     -0.631124      2.231181
  H      -2.727442     -1.506506      1.699500
  H      -4.706752      1.678712      1.313562
  H      -4.728856      1.029306     -0.332854
  H      -3.682832      2.412376      0.069618
  H      -1.188901     -0.201771     -1.994510
  H      -3.208439     -0.839140     -3.088796
  H      -4.172926     -0.718029     -1.608678
  H      -3.468591      0.750225     -2.348613
  H      -2.565113     -2.485267     -0.519706
  H      -1.578817     -2.529941     -1.988971
  H      -0.823140     -2.113578     -0.435594
42
Coordinates from ORCA-job opt E -1378.781794954664
  C       5.253222     -2.296548      1.567587
  C       4.829978     -1.320086      0.495475
  O       3.647666     -0.638592      0.950845
  P       3.060898      0.593280      0.083112
  C       3.894178      2.052692      0.723415
  O       3.165695      0.419518     -1.401633
  S       1.087892      0.620925      0.762357
  C       0.352725      1.459509     -0.685292
  C      -1.140904      1.624616     -0.439606
  N      -1.810230      0.373436     -0.148903
  C      -2.865354      0.504903      0.860615
  C      -3.339273     -0.837919      1.411349
  C      -4.063486      1.397654      0.491101
  C      -1.946470     -0.499371     -1.321116
  C      -3.253866     -0.375504     -2.114760
  C      -1.608102     -1.965535     -1.023681
  H       6.152158     -2.841415      1.243234
  H       5.481997     -1.770290      2.507050
  H       4.453280     -3.026453      1.765975
  H       5.632732     -0.588513      0.296597
  H       4.604503     -1.840508     -0.449217
  H       3.449336      2.954440      0.277399
  H       4.960335      2.007406      0.451047
  H       3.797697      2.101602      1.817526
  H       0.818310      2.447265     -0.824073
  H       0.567111      0.853140     -1.575951
  H      -1.276399      2.297191      0.422325
  H      -1.562294      2.154462     -1.322232
  H      -2.360734      1.010644      1.705068
  H      -3.948357     -1.400388      0.685626
  H      -3.965051     -0.665574      2.300911
  H      -2.487121     -1.465924      1.712744
  H      -4.653557      1.619227      1.395297
  H      -4.738855      0.918082     -0.232297
  H      -3.740173      2.361344      0.066063
  H      -1.153227     -0.161207     -2.007206
  H      -3.163236     -0.922724     -3.067000
  H      -4.111991     -0.801664     -1.571135
  H      -3.481803      0.674617     -2.356272
  H      -2.406629     -2.482471     -0.470698
  H      -1.451394     -2.517107     -1.965292
  H      -0.681207     -2.028163     -0.432958
42
Coordinates from ORCA-job opt E -1378.782332546616
  C       5.295300     -2.265014      1.645516
  C       4.912032     -1.291898      0.556481
  O       3.677189     -0.656813      0.935556
  P       3.093458      0.556328      0.039214
  C       3.872580      2.041165      0.690136
  O       3.233548      0.379473     -1.440408
  S       1.110817      0.516384      0.704305
  C       0.368386      1.413763     -0.710432
  C      -1.124817      1.595029     -0.448270
  N      -1.816653      0.355069     -0.165692
  C      -2.847925      0.491677      0.867574
  C      -3.328330     -0.846669      1.422914
  C      -4.041630      1.395168      0.514031
  C      -2.003027     -0.490563     -1.351024
  C      -3.336758     -0.321469     -2.089953
  C      -1.678295     -1.969701     -1.109393
  H       6.232932     -2.773519      1.376554
  H       5.443603     -1.742112      2.602096
  H       4.512096     -3.026271      1.779820
  H       5.697085     -0.528156      0.418731
  H       4.768859     -1.804387     -0.408051
  H       3.408336      2.925392      0.230236
  H       4.943138      2.022145      0.433867
  H       3.752470      2.085378      1.781147
  H       0.845662      2.398874     -0.822595
  H       0.569578      0.832713     -1.620429
  H      -1.244404      2.258388      0.422909
  H      -1.541585      2.147205     -1.319202
  H      -2.322547      0.993991      1.700951
  H      -3.947090     -1.403696      0.702174
  H      -3.946619     -0.667991      2.316132
  H      -2.479211     -1.481554      1.716251
  H      -4.613785      1.627050      1.426542
  H      -4.732244      0.919394     -0.197955
  H      -3.711966      2.352110      0.079396
  H      -1.229041     -0.140087     -2.052652
  H      -3.294465     -0.845857     -3.057788
  H      -4.180663     -0.743664     -1.521779
  H      -3.553688      0.738844     -2.293294
  H      -2.463445     -2.489859     -0.542260
  H      -1.567081     -2.493669     -2.072272
  H      -0.731802     -2.062590     -0.555689
42
Coordinates from ORCA-job opt E -1378.782576449170
  C       5.352214     -2.220302      1.727199
  C       5.009644     -1.243905      0.628298
  O       3.711987     -0.688325      0.907345
  P       3.123341      0.497500     -0.022752
  C       3.830886      2.016106      0.633066
  O       3.311230      0.319051     -1.494772
  S       1.129732      0.377502      0.614752
  C       0.374590      1.355752     -0.744034
  C      -1.111610      1.567609     -0.452202
  N      -1.836555      0.343541     -0.184929
  C      -2.837151      0.473891      0.881108
  C      -3.342337     -0.869084      1.402137
  C      -4.011252      1.424892      0.591334
  C      -2.054950     -0.481954     -1.380795
  C      -3.388684     -0.269523     -2.107559
  C      -1.770245     -1.971193     -1.157617
  H       6.336737     -2.669437      1.530867
  H       5.389291     -1.713303      2.702153
  H       4.606836     -3.027549      1.776564
  H       5.755546     -0.432616      0.574020
  H       4.979383     -1.736168     -0.356285
  H       3.340930      2.875556      0.154693
  H       4.904909      2.034801      0.395248
  H       3.684296      2.056583      1.719972
  H       0.873349      2.333044     -0.821891
  H       0.547117      0.810407     -1.682106
  H      -1.199939      2.218355      0.431800
  H      -1.525331      2.149750     -1.303568
  H      -2.275698      0.931447      1.715474
  H      -3.988582     -1.383962      0.675462
  H      -3.939144     -0.705277      2.312061
  H      -2.504765     -1.535776      1.654474
  H      -4.545278      1.650525      1.527696
  H      -4.738364      0.992276     -0.109935
  H      -3.660920      2.380762      0.171926
  H      -1.275389     -0.143033     -2.082441
  H      -3.370999     -0.791620     -3.076830
  H      -4.238805     -0.667482     -1.532984
  H      -3.575026      0.797165     -2.303661
  H      -2.562389     -2.473127     -0.584667
  H      -1.688633     -2.486308     -2.127359
  H      -0.819971     -2.096570     -0.617867
42
Coordinates from ORCA-job opt E -1378.782642989341
  C       5.353218     -2.222829      1.730966
  C       5.014577     -1.240434      0.635999
  O       3.711726     -0.695362      0.906749
  P       3.120466      0.486984     -0.026102
  C       3.827417      2.010249      0.620408
  O       3.310448      0.305406     -1.497401
  S       1.126705      0.368770      0.608434
  C       0.372241      1.355581     -0.742061
  C      -1.110689      1.569847     -0.446618
  N      -1.834111      0.344110     -0.181448
  C      -2.837516      0.473798      0.881445
  C      -3.341583     -0.868450      1.405365
  C      -4.013259      1.420329      0.583049
  C      -2.053757     -0.475876     -1.380216
  C      -3.392621     -0.265167     -2.097761
  C      -1.762050     -1.964787     -1.163462
  H       6.341216     -2.666624      1.540913
  H       5.379250     -1.721905      2.709521
  H       4.610650     -3.033129      1.769806
  H       5.756702     -0.425244      0.594558
  H       4.995841     -1.727223     -0.351640
  H       3.333709      2.867055      0.141229
  H       4.899994      2.032438      0.377423
  H       3.685809      2.054452      1.707925
  H       0.873981      2.331815     -0.815106
  H       0.539189      0.815179     -1.684149
  H      -1.193468      2.220395      0.438071
  H      -1.527470      2.151957     -1.296156
  H      -2.281862      0.935131      1.717628
  H      -3.983190     -1.387203      0.677393
  H      -3.943179     -0.703447      2.311822
  H      -2.503832     -1.532100      1.664796
  H      -4.556583      1.642763      1.514806
  H      -4.732546      0.985384     -0.125143
  H      -3.663450      2.378328      0.168601
  H      -1.279772     -0.133086     -2.085748
  H      -3.381099     -0.785232     -3.068151
  H      -4.237854     -0.666068     -1.518092
  H      -3.582229      0.801616     -2.290512
  H      -2.549407     -2.472109     -0.588942
  H      -1.683049     -2.475994     -2.135606
  H      -0.808562     -2.089316     -0.629198
42
Coordinates from ORCA-job opt E -1378.782672472144
  C       5.348659     -2.224294      1.738776
  C       5.023845     -1.226850      0.653034
  O       3.711120     -0.698447      0.905204
  P       3.120742      0.481753     -0.030588
  C       3.820788      2.010391      0.612393
  O       3.318569      0.300358     -1.500833
  S       1.126220      0.355694      0.595777
  C       0.373693      1.345802     -0.750970
  C      -1.106814      1.564397     -0.451199
  N      -1.831927      0.339307     -0.185541
  C      -2.829699      0.471226      0.881682
  C      -3.339432     -0.869166      1.405016
  C      -4.000725      1.426697      0.592149
  C      -2.061040     -0.475589     -1.385980
  C      -3.406683     -0.264343     -2.090581
  C      -1.764918     -1.965048     -1.177141
  H       6.343711     -2.657981      1.562890
  H       5.350449     -1.738553      2.725509
  H       4.611232     -3.040193      1.750433
  H       5.759836     -0.405164      0.641002
  H       5.029944     -1.698796     -0.342115
  H       3.321268      2.863995      0.133355
  H       4.892345      2.040295      0.365757
  H       3.682000      2.055451      1.700433
  H       0.878914      2.320416     -0.823178
  H       0.534915      0.806968     -1.695000
  H      -1.182678      2.214946      0.434187
  H      -1.526175      2.147800     -1.298656
  H      -2.268177      0.926454      1.717453
  H      -3.987977     -1.381912      0.678727
  H      -3.935656     -0.703115      2.314865
  H      -2.504770     -1.538799      1.659192
  H      -4.541015      1.646712      1.526352
  H      -4.724308      1.000712     -0.117131
  H      -3.645932      2.385403      0.183484
  H      -1.294629     -0.130526     -2.098303
  H      -3.404696     -0.782543     -3.062095
  H      -4.246079     -0.666908     -1.503567
  H      -3.598451      0.802875     -2.279394
  H      -2.545931     -2.475821     -0.596964
  H      -1.694568     -2.472867     -2.151960
  H      -0.805970     -2.090738     -0.653079
42
Coordinates from ORCA-job opt E -1378.782733354298
  C       5.327507     -2.242416      1.741739
  C       5.059191     -1.168468      0.714454
  O       3.708542     -0.711779      0.885006
  P       3.127165      0.472636     -0.050154
  C       3.796267      2.010690      0.607874
  O       3.359703      0.311438     -1.517493
  S       1.127963      0.306501      0.539437
  C       0.381295      1.309737     -0.795442
  C      -1.091407      1.547167     -0.478551
  N      -1.824579      0.328279     -0.202156
  C      -2.801758      0.470542      0.880869
  C      -3.319491     -0.864339      1.410610
  C      -3.964328      1.443584      0.614272
  C      -2.086450     -0.479814     -1.399894
  C      -3.449240     -0.262295     -2.068660
  C      -1.791239     -1.971158     -1.199498
  H       6.351043     -2.627512      1.627416
  H       5.219235     -1.840592      2.760216
  H       4.624610     -3.079712      1.620289
  H       5.757986     -0.324043      0.839544
  H       5.175025     -1.557385     -0.309849
  H       3.279600      2.858254      0.135962
  H       4.865874      2.069791      0.358087
  H       3.657689      2.044131      1.696738
  H       0.899859      2.277509     -0.867801
  H       0.521500      0.774531     -1.745124
  H      -1.143038      2.201261      0.406064
  H      -1.518975      2.132178     -1.320828
  H      -2.222118      0.915785      1.710045
  H      -3.985076     -1.368005      0.692816
  H      -3.900368     -0.693508      2.329512
  H      -2.489666     -1.544583      1.652672
  H      -4.493392      1.660331      1.555826
  H      -4.700409      1.034894     -0.092600
  H      -3.601101      2.402697      0.213826
  H      -1.338507     -0.139424     -2.133423
  H      -3.479621     -0.786573     -3.036491
  H      -4.275002     -0.654512     -1.455567
  H      -3.637024      0.805587     -2.258829
  H      -2.557282     -2.478338     -0.596055
  H      -1.752576     -2.479892     -2.176069
  H      -0.817406     -2.103173     -0.705394
42
Coordinates from ORCA-job opt E -1378.782763871302
  C       5.315312     -2.255611      1.724632
  C       5.052727     -1.170663      0.707465
  O       3.703765     -0.709096      0.881959
  P       3.124649      0.480441     -0.048228
  C       3.801043      2.012601      0.615200
  O       3.352565      0.322521     -1.516866
  S       1.125961      0.320539      0.545523
  C       0.378335      1.318672     -0.794127
  C      -1.096157      1.553649     -0.478980
  N      -1.826133      0.333983     -0.198880
  C      -2.807036      0.476716      0.881580
  C      -3.318429     -0.858043      1.417960
  C      -3.974398      1.441744      0.608059
  C      -2.077626     -0.482507     -1.393471
  C      -3.435710     -0.273879     -2.074726
  C      -1.777454     -1.971572     -1.184321
  H       6.337233     -2.643860      1.606526
  H       5.208359     -1.863495      2.746885
  H       4.608859     -3.088516      1.593923
  H       5.755034     -0.330404      0.840905
  H       5.167627     -1.549830     -0.320521
  H       3.287800      2.863863      0.146267
  H       4.870909      2.066914      0.365274
  H       3.663152      2.043885      1.704123
  H       0.894644      2.287235     -0.870205
  H       0.521118      0.780319     -1.741560
  H      -1.152205      2.209504      0.404010
  H      -1.524024      2.135080     -1.323506
  H      -2.230796      0.929769      1.708805
  H      -3.980780     -1.369347      0.702882
  H      -3.900743     -0.684910      2.335542
  H      -2.485179     -1.532516      1.664128
  H      -4.504336      1.661993      1.548235
  H      -4.708322      1.024461     -0.095903
  H      -3.616349      2.399840      0.200555
  H      -1.325195     -0.141700     -2.122511
  H      -3.454141     -0.800883     -3.041348
  H      -4.264968     -0.668815     -1.468345
  H      -3.627645      0.792370     -2.269475
  H      -2.545592     -2.479283     -0.584253
  H      -1.729003     -2.484742     -2.157976
  H      -0.806870     -2.096424     -0.681839
42
Coordinates from ORCA-job opt E -1378.782837742340
  C       5.268604     -2.306599      1.663911
  C       5.043235     -1.157939      0.709522
  O       3.689240     -0.702953      0.867982
  P       3.120320      0.503072     -0.047445
  C       3.809313      2.019983      0.636023
  O       3.344683      0.360726     -1.518766
  S       1.121531      0.350969      0.547316
  C       0.374329      1.341202     -0.801151
  C      -1.104054      1.570908     -0.489700
  N      -1.825268      0.349963     -0.193955
  C      -2.813797      0.496531      0.879728
  C      -3.312447     -0.838045      1.428497
  C      -3.990987      1.442891      0.587142
  C      -2.057322     -0.493172     -1.373940
  C      -3.411709     -0.315808     -2.071251
  C      -1.739198     -1.973470     -1.134269
  H       6.293209     -2.690220      1.554286
  H       5.128049     -1.980921      2.704946
  H       4.565151     -3.125836      1.454368
  H       5.741021     -0.329798      0.920230
  H       5.193148     -1.470713     -0.336039
  H       3.301488      2.879924      0.177136
  H       4.879388      2.068120      0.385426
  H       3.672720      2.042052      1.725151
  H       0.886694      2.311109     -0.883592
  H       0.522719      0.798059     -1.744712
  H      -1.169206      2.234407      0.386834
  H      -1.534594      2.139687     -1.341310
  H      -2.246199      0.966987      1.702965
  H      -3.964804     -1.366028      0.716619
  H      -3.901095     -0.660832      2.341274
  H      -2.472157     -1.499426      1.685895
  H      -4.526826      1.669967      1.522187
  H      -4.716857      1.006614     -0.113492
  H      -3.643130      2.398890      0.165992
  H      -1.302609     -0.153876     -2.101642
  H      -3.410934     -0.857724     -3.029706
  H      -4.241278     -0.714347     -1.467652
  H      -3.618531      0.744011     -2.284221
  H      -2.504370     -2.479073     -0.528707
  H      -1.676830     -2.505605     -2.096551
  H      -0.770645     -2.073687     -0.621934
42
Coordinates from ORCA-job opt E -1378.782907840409
  C       5.230618     -2.370401      1.568090
  C       5.057027     -1.103173      0.764363
  O       3.680060     -0.700718      0.853065
  P       3.122005      0.523003     -0.045651
  C       3.811648      2.027234      0.663442
  O       3.354259      0.404628     -1.518516
  S       1.121374      0.364793      0.536506
  C       0.375131      1.336712     -0.827016
  C      -1.104436      1.570889     -0.516767
  N      -1.824494      0.355393     -0.196465
  C      -2.812663      0.520713      0.875599
  C      -3.304133     -0.804431      1.453356
  C      -3.994275      1.454933      0.564675
  C      -2.053542     -0.514640     -1.358234
  C      -3.406040     -0.354846     -2.063531
  C      -1.732964     -1.989079     -1.087491
  H       6.273430     -2.713274      1.505954
  H       4.981689     -2.199215      2.625355
  H       4.577688     -3.164616      1.177258
  H       5.702453     -0.298343      1.155031
  H       5.314981     -1.262588     -0.294701
  H       3.302262      2.892614      0.216535
  H       4.881225      2.080004      0.411582
  H       3.676137      2.037234      1.752798
  H       0.887650      2.304920     -0.925361
  H       0.523451      0.781068     -1.763169
  H      -1.170788      2.247526      0.349544
  H      -1.537548      2.124504     -1.376808
  H      -2.245331      1.011388      1.687035
  H      -3.952704     -1.352849      0.753962
  H      -3.893843     -0.610099      2.361975
  H      -2.459756     -1.454472      1.725639
  H      -4.529543      1.698838      1.495714
  H      -4.719033      1.001044     -0.125556
  H      -3.651644      2.403207      0.122247
  H      -1.298050     -0.187626     -2.090884
  H      -3.398973     -0.916243     -3.010658
  H      -4.237423     -0.743236     -1.455967
  H      -3.614915      0.699618     -2.299097
  H      -2.495707     -2.481694     -0.468426
  H      -1.671964     -2.543081     -2.037266
  H      -0.763320     -2.075638     -0.574766
42
Coordinates from ORCA-job opt E -1378.782948996494
  C       5.244725     -2.365200      1.572795
  C       5.062106     -1.104191      0.761648
  O       3.689615     -0.691990      0.871821
  P       3.123556      0.520638     -0.037118
  C       3.825930      2.029974      0.646747
  O       3.338736      0.380766     -1.510656
  S       1.126222      0.382267      0.564522
  C       0.375166      1.339127     -0.807464
  C      -1.105756      1.567943     -0.504218
  N      -1.826767      0.351283     -0.190780
  C      -2.821088      0.514661      0.875797
  C      -3.317215     -0.811670      1.446391
  C      -4.000404      1.449853      0.558649
  C      -2.053503     -0.513565     -1.356706
  C      -3.401647     -0.342582     -2.067546
  C      -1.744493     -1.990801     -1.088674
  H       6.285482     -2.711415      1.495743
  H       5.014896     -2.183955      2.632721
  H       4.583300     -3.161183      1.200489
  H       5.717864     -0.298395      1.132325
  H       5.299581     -1.273979     -0.300622
  H       3.319573      2.892167      0.190392
  H       4.894902      2.071324      0.390349
  H       3.695543      2.055648      1.736466
  H       0.882566      2.309582     -0.910783
  H       0.530501      0.777236     -1.738784
  H      -1.178576      2.243390      0.362504
  H      -1.534087      2.122812     -1.365935
  H      -2.258581      1.002855      1.692026
  H      -3.960568     -1.358056      0.740521
  H      -3.913665     -0.619370      2.350986
  H      -2.474915     -1.462594      1.723079
  H      -4.540301      1.694348      1.486872
  H      -4.721867      0.996113     -0.135169
  H      -3.655010      2.397787      0.117805
  H      -1.292009     -0.188909     -2.084067
  H      -3.393472     -0.899742     -3.017197
  H      -4.238240     -0.728650     -1.465549
  H      -3.603116      0.714113     -2.299518
  H      -2.514292     -2.480056     -0.475631
  H      -1.682142     -2.541807     -2.040077
  H      -0.778550     -2.085779     -0.570758
42
Coordinates from ORCA-job opt E -1378.782989464060
  C       5.247503     -2.365478      1.581394
  C       5.063924     -1.098036      0.781171
  O       3.693758     -0.681699      0.899000
  P       3.121626      0.510608     -0.032727
  C       3.838613      2.033178      0.604860
  O       3.317611      0.333001     -1.504422
  S       1.128853      0.399728      0.592429
  C       0.373002      1.342210     -0.785859
  C      -1.107607      1.565533     -0.489386
  N      -1.827631      0.346201     -0.185173
  C      -2.826055      0.505631      0.878187
  C      -3.329679     -0.821267      1.440166
  C      -4.001000      1.447118      0.560970
  C      -2.052245     -0.508195     -1.358816
  C      -3.402155     -0.333602     -2.065380
  C      -1.739148     -1.986766     -1.103794
  H       6.288723     -2.709786      1.501830
  H       5.018705     -2.191859      2.643041
  H       4.587066     -3.160112      1.204795
  H       5.721846     -0.295352      1.154369
  H       5.296656     -1.261422     -0.283355
  H       3.333361      2.886559      0.131108
  H       4.905739      2.061230      0.339484
  H       3.717396      2.085615      1.694778
  H       0.875679      2.314953     -0.892317
  H       0.534004      0.774452     -1.712797
  H      -1.184884      2.240332      0.377508
  H      -1.531685      2.121728     -1.352560
  H      -2.266102      0.987082      1.700229
  H      -3.972643     -1.360558      0.728374
  H      -3.929208     -0.631280      2.343155
  H      -2.491311     -1.477431      1.716516
  H      -4.543245      1.690703      1.488136
  H      -4.722069      0.998566     -0.136775
  H      -3.650303      2.395420      0.125411
  H      -1.292293     -0.176537     -2.084460
  H      -3.395987     -0.882007     -3.020180
  H      -4.236326     -0.726706     -1.464496
  H      -3.606115      0.724915     -2.287130
  H      -2.508095     -2.484097     -0.496488
  H      -1.675066     -2.527731     -2.060937
  H      -0.773209     -2.084844     -0.586463
42
Coordinates from ORCA-job opt E -1378.783011622139
  C       5.228238     -2.386302      1.550996
  C       5.061096     -1.085281      0.803058
  O       3.692108     -0.664697      0.921714
  P       3.120756      0.518498     -0.021971
  C       3.854994      2.045161      0.585471
  O       3.299999      0.316834     -1.492581
  S       1.132114      0.434354      0.620970
  C       0.372679      1.351242     -0.772151
  C      -1.110419      1.567154     -0.485550
  N      -1.826725      0.345727     -0.180377
  C      -2.830337      0.505852      0.877761
  C      -3.332041     -0.820545      1.442592
  C      -4.007158      1.442394      0.552018
  C      -2.044637     -0.512325     -1.352717
  C      -3.390795     -0.339878     -2.066936
  C      -1.733498     -1.990200     -1.090442
  H       6.269735     -2.730233      1.473224
  H       4.983980     -2.256779      2.615600
  H       4.571478     -3.162348      1.131673
  H       5.717887     -0.302219      1.217536
  H       5.306494     -1.206224     -0.264457
  H       3.351909      2.895147      0.103352
  H       4.920131      2.060998      0.311037
  H       3.743714      2.114382      1.675618
  H       0.868410      2.326448     -0.888869
  H       0.542358      0.771715     -1.690154
  H      -1.196194      2.247022      0.376648
  H      -1.531622      2.116757     -1.354501
  H      -2.275784      0.992034      1.700773
  H      -3.969537     -1.364790      0.729478
  H      -3.936895     -0.629049      2.341697
  H      -2.492825     -1.472724      1.725776
  H      -4.553467      1.688945      1.476058
  H      -4.724589      0.988164     -0.145899
  H      -3.657899      2.389861      0.113472
  H      -1.280696     -0.183991     -2.075558
  H      -3.380652     -0.892106     -3.019537
  H      -4.228127     -0.729947     -1.468469
  H      -3.592782      0.717906     -2.294108
  H      -2.506296     -2.485071     -0.485838
  H      -1.664495     -2.534343     -2.045557
  H      -0.770608     -2.087544     -0.567453
42
Coordinates from ORCA-job opt E -1378.783065499540
  C       5.192065     -2.432367      1.455767
  C       5.056440     -1.057166      0.847011
  O       3.681488     -0.648665      0.942307
  P       3.118956      0.535103     -0.005761
  C       3.868002      2.059896      0.588488
  O       3.289843      0.323323     -1.475936
  S       1.131751      0.472500      0.643457
  C       0.372466      1.360789     -0.767966
  C      -1.114045      1.571535     -0.493851
  N      -1.825399      0.350779     -0.174482
  C      -2.837391      0.522159      0.873575
  C      -3.334726     -0.797888      1.457080
  C      -4.017856      1.445713      0.524498
  C      -2.029103     -0.527824     -1.334143
  C      -3.369208     -0.373650     -2.063666
  C      -1.714081     -1.999806     -1.043553
  H       6.238959     -2.763857      1.398753
  H       4.889686     -2.420700      2.513288
  H       4.564776     -3.158941      0.919094
  H       5.686666     -0.323933      1.377353
  H       5.356524     -1.062770     -0.213504
  H       3.367360      2.910522      0.104943
  H       4.931612      2.067284      0.307417
  H       3.764100      2.135501      1.679034
  H       0.862585      2.337170     -0.897893
  H       0.551124      0.766331     -1.674564
  H      -1.209838      2.265118      0.356321
  H      -1.532843      2.104495     -1.374300
  H      -2.291777      1.025346      1.692385
  H      -3.963329     -1.358269      0.748488
  H      -3.947633     -0.595207      2.348266
  H      -2.493506     -1.439717      1.757453
  H      -4.571282      1.705242      1.440743
  H      -4.728484      0.974969     -0.169391
  H      -3.671607      2.387659      0.071780
  H      -1.259826     -0.208840     -2.055507
  H      -3.348433     -0.941923     -3.006636
  H      -4.210237     -0.757102     -1.466168
  H      -3.573464      0.679285     -2.310554
  H      -2.490554     -2.487601     -0.437734
  H      -1.633923     -2.559976     -1.988551
  H      -0.755858     -2.084517     -0.509946
42
Coordinates from ORCA-job opt E -1378.783057939173
  C       5.205464     -2.447075      1.383356
  C       5.067192     -1.015604      0.922474
  O       3.675201     -0.657100      0.950576
  P       3.121112      0.525655     -0.003486
  C       3.861638      2.053737      0.593524
  O       3.305796      0.314430     -1.472066
  S       1.129633      0.457400      0.630365
  C       0.375774      1.339425     -0.787666
  C      -1.109242      1.561656     -0.514015
  N      -1.827008      0.348541     -0.180113
  C      -2.833566      0.535974      0.870320
  C      -3.336201     -0.775445      1.468635
  C      -4.009956      1.463302      0.517412
  C      -2.039669     -0.540665     -1.330025
  C      -3.381965     -0.387347     -2.055621
  C      -1.730587     -2.011277     -1.026143
  H       6.265928     -2.737978      1.384172
  H       4.813276     -2.566233      2.404150
  H       4.656228     -3.125436      0.714340
  H       5.624127     -0.329858      1.582261
  H       5.450955     -0.893368     -0.103745
  H       3.358984      2.901357      0.106769
  H       4.926187      2.066037      0.316172
  H       3.752838      2.130269      1.683581
  H       0.871805      2.311737     -0.925098
  H       0.550057      0.737026     -1.689836
  H      -1.199767      2.265089      0.328598
  H      -1.526509      2.087272     -1.399608
  H      -2.281494      1.043502      1.682079
  H      -3.971377     -1.338780      0.768316
  H      -3.943867     -0.560662      2.360598
  H      -2.497456     -1.419544      1.771146
  H      -4.557948      1.735140      1.433375
  H      -4.726386      0.990243     -0.168873
  H      -3.659783      2.398680      0.054178
  H      -1.271920     -0.232463     -2.057656
  H      -3.367962     -0.964589     -2.993252
  H      -4.222228     -0.761203     -1.451012
  H      -3.582485      0.664237     -2.311221
  H      -2.506155     -2.488658     -0.410890
  H      -1.658771     -2.581659     -1.965696
  H      -0.769890     -2.095764     -0.496981
42
Coordinates from ORCA-job opt E -1378.783099971691
  C       5.229113     -2.417844      1.464857
  C       5.076359     -1.033029      0.881693
  O       3.684643     -0.674175      0.917692
  P       3.125175      0.515519     -0.024369
  C       3.831493      2.043337      0.613999
  O       3.338543      0.335103     -1.493166
  S       1.126949      0.400639      0.580905
  C       0.377744      1.324838     -0.812851
  C      -1.103200      1.557325     -0.522357
  N      -1.826000      0.346153     -0.192723
  C      -2.817838      0.527674      0.872834
  C      -3.320646     -0.787579      1.462627
  C      -3.992861      1.465758      0.545675
  C      -2.057714     -0.530297     -1.348646
  C      -3.410005     -0.366128     -2.053006
  C      -1.747565     -2.004869     -1.066507
  H       6.288933     -2.711124      1.459465
  H       4.866597     -2.445024      2.502955
  H       4.660245     -3.150940      0.874550
  H       5.651909     -0.293322      1.462568
  H       5.431123     -1.001517     -0.161424
  H       3.325300      2.892775      0.134199
  H       4.900277      2.076326      0.355602
  H       3.702164      2.097560      1.703005
  H       0.883674      2.294345     -0.932028
  H       0.538552      0.742171     -1.730415
  H      -1.179327      2.250904      0.329699
  H      -1.525935      2.096032     -1.397277
  H      -2.252075      1.022851      1.682692
  H      -3.969918     -1.338192      0.765304
  H      -3.913589     -0.579685      2.366075
  H      -2.482009     -1.440833      1.745054
  H      -4.528308      1.728740      1.471550
  H      -4.719815      1.005503     -0.138172
  H      -3.642765      2.404751      0.089766
  H      -1.299934     -0.215002     -2.083753
  H      -3.410153     -0.932528     -2.997262
  H      -4.242248     -0.745611     -1.440790
  H      -3.612389      0.688657     -2.293286
  H      -2.515136     -2.488067     -0.445965
  H      -1.689865     -2.564593     -2.013303
  H      -0.779498     -2.096606     -0.552070
42
Coordinates from ORCA-job opt E -1378.783106660126
  C       5.221601     -2.423096      1.454967
  C       5.072349     -1.042891      0.860174
  O       3.686218     -0.666574      0.923082
  P       3.123759      0.524464     -0.015566
  C       3.838357      2.049618      0.619799
  O       3.327675      0.342139     -1.485502
  S       1.127547      0.418317      0.598327
  C       0.376613      1.333165     -0.800643
  C      -1.105904      1.561136     -0.514799
  N      -1.826162      0.348127     -0.186342
  C      -2.825923      0.529199      0.871901
  C      -3.328103     -0.786144      1.462022
  C      -4.002173      1.461833      0.533759
  C      -2.047690     -0.531708     -1.341589
  C      -3.394931     -0.371560     -2.056516
  C      -1.737617     -2.004976     -1.052574
  H       6.277619     -2.728687      1.429834
  H       4.881643     -2.434714      2.500896
  H       4.631705     -3.156238      0.885679
  H       5.669746     -0.303972      1.419731
  H       5.403846     -1.026939     -0.190767
  H       3.334644      2.901648      0.142001
  H       4.906739      2.077658      0.358968
  H       3.712613      2.103904      1.709249
  H       0.879106      2.304097     -0.923053
  H       0.541695      0.746783     -1.715118
  H      -1.187285      2.256045      0.335677
  H      -1.527378      2.096987     -1.392033
  H      -2.267776      1.028923      1.684271
  H      -3.969222     -1.341830      0.761108
  H      -3.929387     -0.577602      2.359781
  H      -2.489178     -1.434788      1.753934
  H      -4.544572      1.726080      1.455207
  H      -4.723038      0.996480     -0.153094
  H      -3.652719      2.400617      0.076935
  H      -1.284615     -0.217685     -2.071842
  H      -3.387407     -0.941197     -2.998798
  H      -4.231198     -0.749966     -1.449098
  H      -3.596699      0.682087     -2.302236
  H      -2.509742     -2.487658     -0.437301
  H      -1.670976     -2.567202     -1.997315
  H      -0.773784     -2.093878     -0.529722
42
Coordinates from ORCA-job opt E -1378.783107176550
  C       5.220742     -2.426417      1.444667
  C       5.073043     -1.037884      0.869159
  O       3.685682     -0.665127      0.926844
  P       3.124040      0.524836     -0.013666
  C       3.838152      2.050807      0.620349
  O       3.328847      0.340649     -1.483229
  S       1.127414      0.419472      0.599096
  C       0.377192      1.331393     -0.802202
  C      -1.105410      1.560004     -0.517504
  N      -1.825991      0.347704     -0.187039
  C      -2.825222      0.530773      0.871340
  C      -3.327906     -0.783480      1.463434
  C      -4.001060      1.463686      0.532442
  C      -2.048357     -0.533743     -1.340946
  C      -3.395891     -0.374091     -2.055420
  C      -1.738759     -2.006750     -1.050048
  H       6.277880     -2.728547      1.425053
  H       4.871040     -2.454493      2.487081
  H       4.638466     -3.152762      0.859054
  H       5.664095     -0.305901      1.444315
  H       5.412824     -1.005923     -0.178783
  H       3.334926      2.902346      0.141188
  H       4.906791      2.078420      0.360489
  H       3.711461      2.106169      1.709645
  H       0.879774      2.302050     -0.926345
  H       0.542704      0.743090     -1.715334
  H      -1.187058      2.256584      0.331583
  H      -1.526408      2.094273     -1.395958
  H      -2.266438      1.031247      1.682810
  H      -3.969596     -1.339726      0.763503
  H      -3.928737     -0.573380      2.361137
  H      -2.489225     -1.432229      1.755856
  H      -4.542670      1.729837      1.453809
  H      -4.722713      0.997721     -0.153158
  H      -3.651240      2.401485      0.073879
  H      -1.285514     -0.221058     -2.071974
  H      -3.389055     -0.944826     -2.997049
  H      -4.231893     -0.751582     -1.447089
  H      -3.597554      0.679333     -2.302193
  H      -2.510800     -2.488254     -0.433733
  H      -1.672875     -2.570273     -1.994073
  H      -0.774702     -2.095432     -0.527596
42
Coordinates from ORCA-job opt E -1378.783107875663
  C       5.220079     -2.426182      1.446033
  C       5.073308     -1.037102      0.871582
  O       3.686025     -0.663920      0.928793
  P       3.124464      0.524459     -0.013808
  C       3.836245      2.051777      0.619725
  O       3.331339      0.338842     -1.482877
  S       1.127296      0.417444      0.597101
  C       0.377680      1.330160     -0.804055
  C      -1.104741      1.559484     -0.518953
  N      -1.825569      0.347410     -0.188177
  C      -2.823456      0.530352      0.871484
  C      -3.325788     -0.784019      1.463598
  C      -3.999411      1.463792      0.534416
  C      -2.049517     -0.533534     -1.342185
  C      -3.397897     -0.373249     -2.054908
  C      -1.739948     -2.006760     -1.052377
  H       6.277224     -2.728398      1.427755
  H       4.868809     -2.455076      2.487904
  H       4.638645     -3.151965      0.858888
  H       5.664248     -0.305910      1.447857
  H       5.413696     -1.004383     -0.176135
  H       3.333228      2.902634      0.139168
  H       4.905293      2.079896      0.361602
  H       3.707766      2.107599      1.708787
  H       0.880794      2.300546     -0.928076
  H       0.542617      0.741998     -1.717373
  H      -1.185754      2.256108      0.330153
  H      -1.525862      2.093912     -1.397256
  H      -2.263525      1.030313      1.682475
  H      -3.968447     -1.339752      0.764170
  H      -3.925503     -0.574169      2.362107
  H      -2.486939     -1.433155      1.754704
  H      -4.539677      1.729904      1.456585
  H      -4.722157      0.998291     -0.150348
  H      -3.649831      2.401574      0.075644
  H      -1.287477     -0.220685     -2.073966
  H      -3.392414     -0.943532     -2.996819
  H      -4.233148     -0.750872     -1.445639
  H      -3.599692      0.680344     -2.300842
  H      -2.511378     -2.488385     -0.435385
  H      -1.675358     -2.569807     -1.996775
  H      -0.775266     -2.095983     -0.531184
