39
Coordinates from ORCA-job opt E -1074.868065096486
  C           1.11202869418721     -0.30019028090025      2.47060200289491
  C           1.33686688964633     -1.29216733087368      1.33714447141379
  N           1.13897741553541     -0.69259436416942      0.01359043837403
  C           2.30846979924271     -0.64317218049030     -0.86704591072917
  C           3.49112782195356      0.15710554570913     -0.33499912669439
  C          -0.02551877137594     -0.07038595074879     -0.33839149957452
  N          -0.08869047885250      1.00762168339511     -1.09784728814086
  P           0.77542737674394      2.36994040692377     -1.08592114897116
  C          -0.25337833805588      3.62514196597379     -1.84513399621228
  O           1.45591415544171      2.81345948280679      0.17232334043493
  F           1.89677862393887      2.19773826756494     -2.25620331227207
  N          -1.19801536875740     -0.60786720535336      0.09608923053843
  C          -1.41504884224533     -2.04942165157080      0.23435871503091
  C          -1.89368681716715     -2.49093984800600      1.61218220776566
  C          -2.41147234713225      0.20790340243238      0.03516582040318
  C          -3.14230555519933      0.15528806598944     -1.30137529150799
  H           1.32008458318114     -0.77568282958894      3.44043131255824
  H           1.76793125803902      0.57563310768492      2.35885688608947
  H           0.07065420433516      0.05595060923870      2.48519059057625
  H           0.71633059340045     -2.18758932505066      1.47773671501392
  H           2.37324362476708     -1.65439742604682      1.35957356493829
  H           1.97848125981844     -0.23280404659384     -1.82942986482463
  H           2.61942305265859     -1.68539070245353     -1.05609669107916
  H           4.29529275040764      0.16350633870760     -1.08580844420307
  H           3.20403517001743      1.19486475605824     -0.12061142830250
  H           3.90320544851848     -0.28489426383455      0.58505411461130
  H           0.33516057132564      4.54126813103167     -1.99018051154110
  H          -1.09882499176154      3.83969281485240     -1.17672835916716
  H          -0.63634969667332      3.26901599196612     -2.81071534417955
  H          -0.49206680359908     -2.56702452970853     -0.05410901516493
  H          -2.16682265902873     -2.34317380877421     -0.51775090225002
  H          -2.01366742896568     -3.58407630808090      1.62705903412334
  H          -1.18544972227693     -2.21334741074592      2.40609475916569
  H          -2.86957714533903     -2.04861657275578      1.86064368680466
  H          -2.13208575378604      1.24250702626765      0.27215854384415
  H          -3.07472313325196     -0.13715631305325      0.84295045432949
  H          -3.45023869891011     -0.86944477853010     -1.55965513890626
  H          -2.49959478146825      0.54121567159613     -2.10460311143163
  H          -4.05191595931232      0.77248381913087     -1.25459949375820
