39
Coordinates from ORCA-job opt E -1074.849011658747
  C       0.924688      0.261295      2.594994
  C       1.471236     -0.705699      1.554066
  N       1.081370     -0.362505      0.181639
  C       1.858180     -0.983671     -0.897980
  C       3.280554     -0.450142     -0.975187
  C      -0.150510      0.168758     -0.111668
  N      -0.305895      1.385236     -0.528416
  P       0.846892      2.457816     -0.792990
  C      -0.031181      3.981158     -1.160220
  O       1.895396      2.701427      0.258195
  F       1.553640      1.958019     -2.111585
  N      -1.260061     -0.652207      0.043483
  C      -1.219514     -2.104690      0.226983
  C      -1.688201     -2.501973      1.620281
  C      -2.596389     -0.109948     -0.261923
  C      -2.872435     -0.120580     -1.759539
  H       1.270712     -0.028777      3.592397
  H       1.266379      1.282673      2.406521
  H      -0.169134      0.269198      2.613506
  H       1.153817     -1.725686      1.791121
  H       2.562116     -0.697261      1.645568
  H       1.367663     -0.801424     -1.862313
  H       1.885881     -2.070575     -0.759941
  H       3.778486     -0.841633     -1.868215
  H       3.303382      0.641138     -1.024762
  H       3.875219     -0.757460     -0.110022
  H       0.676457      4.759134     -1.458761
  H      -0.581827      4.325706     -0.280787
  H      -0.738878      3.823886     -1.978736
  H      -0.224141     -2.518970      0.052396
  H      -1.864020     -2.591156     -0.515224
  H      -1.600902     -3.585323      1.750886
  H      -1.096536     -2.017225      2.401007
  H      -2.735470     -2.231305      1.785631
  H      -2.697021      0.908346      0.132596
  H      -3.372521     -0.696801      0.242158
  H      -2.825776     -1.136267     -2.164944
  H      -2.149744      0.489650     -2.309696
  H      -3.871914      0.277839     -1.960519
39
Coordinates from ORCA-job opt E -1074.858336480809
  C       0.858746      0.153518      2.567715
  C       1.427099     -0.793273      1.521537
  N       1.108826     -0.382628      0.160192
  C       1.891189     -0.987368     -0.918239
  C       3.350995     -0.544240     -0.942771
  C      -0.134348      0.174852     -0.139396
  N      -0.316836      1.400815     -0.542205
  P       0.802914      2.542405     -0.779453
  C      -0.125705      4.018369     -1.196992
  O       1.845934      2.831675      0.261887
  F       1.522578      2.109736     -2.131557
  N      -1.226329     -0.610527      0.034075
  C      -1.166061     -2.045889      0.277819
  C      -1.637277     -2.433597      1.677387
  C      -2.549693     -0.068507     -0.269905
  C      -2.875523     -0.118114     -1.759231
  H       1.158606     -0.176039      3.573043
  H       1.233699      1.175205      2.411924
  H      -0.241677      0.185512      2.541711
  H       1.083973     -1.828903      1.715764
  H       2.521218     -0.804289      1.630548
  H       1.421265     -0.728715     -1.878858
  H       1.845335     -2.090371     -0.837024
  H       3.847952     -0.931259     -1.845471
  H       3.434971      0.549751     -0.944127
  H       3.907898     -0.924443     -0.073334
  H       0.560940      4.823689     -1.493072
  H      -0.697396      4.341557     -0.317687
  H      -0.823647      3.821745     -2.023566
  H      -0.148214     -2.422184      0.112767
  H      -1.792169     -2.554084     -0.472775
  H      -1.531100     -3.518428      1.825983
  H      -1.051465     -1.923361      2.455529
  H      -2.695487     -2.176114      1.834392
  H      -2.612112      0.964145      0.099915
  H      -3.305031     -0.640019      0.288824
  H      -2.851978     -1.151397     -2.138247
  H      -2.159410      0.475124     -2.345665
  H      -3.882680      0.285649     -1.941438
39
Coordinates from ORCA-job opt E -1074.861002132230
  C       0.917067      0.228063      2.578808
  C       1.461003     -0.767398      1.564524
  N       1.111390     -0.411460      0.199776
  C       1.898020     -0.974585     -0.888806
  C       3.329165     -0.449173     -0.963151
  C      -0.159671      0.125983     -0.097926
  N      -0.331373      1.347959     -0.531188
  P       0.812244      2.503098     -0.697384
  C      -0.055299      3.940699     -1.317170
  O       1.764975      2.833892      0.410478
  F       1.646818      2.041432     -1.993805
  N      -1.248752     -0.640064      0.049982
  C      -1.204201     -2.082844      0.243206
  C      -1.716845     -2.559913      1.601292
  C      -2.560579     -0.070986     -0.216275
  C      -2.920684     -0.044409     -1.698107
  H       1.257592     -0.041948      3.591164
  H       1.274726      1.243729      2.341399
  H      -0.186169      0.248033      2.591429
  H       1.154839     -1.806275      1.826548
  H       2.561582     -0.749677      1.617290
  H       1.372928     -0.740035     -1.828758
  H       1.912926     -2.085087     -0.809025
  H       3.822929     -0.823726     -1.875161
  H       3.334931      0.652253     -0.987383
  H       3.934514     -0.775463     -0.100749
  H       0.668114      4.727941     -1.580389
  H      -0.712319      4.306789     -0.514164
  H      -0.667085      3.691630     -2.198577
  H      -0.177928     -2.431682      0.072587
  H      -1.811667     -2.535705     -0.560324
  H      -1.624953     -3.655531      1.675062
  H      -1.143395     -2.112266      2.428246
  H      -2.778877     -2.300563      1.748262
  H      -2.583768      0.943735      0.203859
  H      -3.297182     -0.668805      0.344073
  H      -2.916984     -1.060605     -2.128728
  H      -2.208002      0.576279     -2.264532
  H      -3.930030      0.376686     -1.836384
39
Coordinates from ORCA-job opt E -1074.862315014695
  C       0.843224      0.153757      2.562627
  C       1.415361     -0.799962      1.523865
  N       1.112349     -0.389802      0.161496
  C       1.922459     -0.920475     -0.925813
  C       3.366000     -0.428869     -0.927093
  C      -0.158640      0.136027     -0.150833
  N      -0.321060      1.358612     -0.590916
  P       0.839783      2.503931     -0.729176
  C      -0.008539      3.966185     -1.314995
  O       1.805462      2.781164      0.379299
  F       1.658814      2.079034     -2.057767
  N      -1.246332     -0.634713      0.022354
  C      -1.182179     -2.071617      0.271612
  C      -1.675772     -2.495918      1.650204
  C      -2.576136     -0.081834     -0.214325
  C      -2.988407     -0.101006     -1.680951
  H       1.159254     -0.151469      3.571331
  H       1.199092      1.176534      2.367391
  H      -0.258427      0.166913      2.549154
  H       1.100988     -1.844824      1.735670
  H       2.513200     -0.793717      1.609657
  H       1.433765     -0.630686     -1.868972
  H       1.909484     -2.031101     -0.900778
  H       3.884745     -0.787150     -1.829303
  H       3.395668      0.670152     -0.917844
  H       3.928085     -0.795543     -0.054099
  H       0.727210      4.746950     -1.552882
  H      -0.661612      4.319772     -0.503913
  H      -0.619413      3.746491     -2.201303
  H      -0.151399     -2.405722      0.107757
  H      -1.788641     -2.563036     -0.508229
  H      -1.576511     -3.585554      1.761544
  H      -1.094295     -2.015617      2.451343
  H      -2.735685     -2.237801      1.799354
  H      -2.590633      0.943758      0.176753
  H      -3.282449     -0.672445      0.388560
  H      -2.986869     -1.126491     -2.083510
  H      -2.305793      0.513687     -2.285461
  H      -4.006153      0.302385     -1.791811
39
Coordinates from ORCA-job opt E -1074.862827142543
  C       0.833505      0.160208      2.564834
  C       1.390957     -0.797212      1.521614
  N       1.109751     -0.367960      0.158223
  C       1.929864     -0.898665     -0.924605
  C       3.388746     -0.461658     -0.871955
  C      -0.159620      0.144205     -0.166917
  N      -0.326693      1.354624     -0.640316
  P       0.827874      2.508466     -0.755295
  C      -0.023441      3.962107     -1.358860
  O       1.769776      2.785396      0.371332
  F       1.677578      2.097577     -2.076478
  N      -1.244662     -0.631888      0.021408
  C      -1.174996     -2.077095      0.243291
  C      -1.627496     -2.519561      1.627838
  C      -2.581316     -0.072092     -0.182370
  C      -3.016013     -0.076691     -1.641290
  H       1.139458     -0.156197      3.571973
  H       1.207592      1.175873      2.374674
  H      -0.266481      0.192975      2.547432
  H       1.052998     -1.833569      1.722141
  H       2.486899     -0.821051      1.618063
  H       1.479503     -0.566392     -1.871659
  H       1.877021     -2.006064     -0.933096
  H       3.921907     -0.829197     -1.760605
  H       3.459384      0.633355     -0.848319
  H       3.906460     -0.860590      0.012508
  H       0.711669      4.748280     -1.574259
  H      -0.702204      4.310159     -0.567488
  H      -0.605127      3.733679     -2.260299
  H      -0.149445     -2.406787      0.045196
  H      -1.804632     -2.555883     -0.524561
  H      -1.536056     -3.611305      1.712099
  H      -1.015333     -2.063137      2.418416
  H      -2.678166     -2.256098      1.816345
  H      -2.583501      0.951145      0.216077
  H      -3.277186     -0.665372      0.427445
  H      -3.019578     -1.096125     -2.055037
  H      -2.344041      0.546290     -2.247531
  H      -4.034954      0.326253     -1.729967
39
Coordinates from ORCA-job opt E -1074.863274915701
  C       0.827486      0.084172      2.567025
  C       1.394355     -0.834129      1.494607
  N       1.115596     -0.355972      0.145225
  C       1.954980     -0.829047     -0.953850
  C       3.411925     -0.401092     -0.844531
  C      -0.154336      0.143746     -0.175052
  N      -0.323384      1.338189     -0.688875
  P       0.824705      2.501398     -0.758776
  C      -0.007742      3.932754     -1.439154
  O       1.699161      2.798778      0.413537
  F       1.756364      2.081739     -2.030517
  N      -1.242447     -0.623906      0.045530
  C      -1.189271     -2.074188      0.261499
  C      -1.659664     -2.512897      1.640017
  C      -2.577576     -0.046385     -0.143896
  C      -3.041468     -0.086678     -1.592775
  H       1.139449     -0.257084      3.563445
  H       1.185853      1.109272      2.403357
  H      -0.272468      0.101288      2.551922
  H       1.064497     -1.876060      1.658026
  H       2.488863     -0.858126      1.596149
  H       1.528715     -0.435634     -1.887518
  H       1.899137     -1.932044     -1.032476
  H       3.965326     -0.736561     -1.732790
  H       3.486491      0.691346     -0.776965
  H       3.904043     -0.839280      0.034690
  H       0.732893      4.722105     -1.618950
  H      -0.742798      4.290015     -0.704906
  H      -0.522238      3.674482     -2.371776
  H      -0.165704     -2.413460      0.068466
  H      -1.820348     -2.542341     -0.510400
  H      -1.593570     -3.607152      1.713358
  H      -1.044163     -2.079430      2.439112
  H      -2.705474     -2.230421      1.822881
  H      -2.551637      0.989119      0.222216
  H      -3.268684     -0.608550      0.498426
  H      -3.064369     -1.115943     -1.978454
  H      -2.375096      0.512755     -2.227049
  H      -4.057401      0.325220     -1.670778
39
Coordinates from ORCA-job opt E -1074.863662717028
  C       0.836325      0.097007      2.552192
  C       1.392581     -0.842236      1.492123
  N       1.118455     -0.370581      0.139385
  C       1.978335     -0.827721     -0.952327
  C       3.428386     -0.382521     -0.821457
  C      -0.145779      0.127002     -0.194725
  N      -0.310520      1.311745     -0.736635
  P       0.824490      2.489335     -0.770560
  C      -0.013956      3.920891     -1.444421
  O       1.676588      2.775885      0.420395
  F       1.784871      2.107260     -2.036447
  N      -1.240054     -0.621618      0.055080
  C      -1.206455     -2.074023      0.251332
  C      -1.677059     -2.529650      1.625408
  C      -2.568794     -0.028224     -0.125321
  C      -3.060799     -0.090737     -1.565289
  H       1.149016     -0.231741      3.553293
  H       1.202894      1.117508      2.371569
  H      -0.263878      0.123458      2.539403
  H       1.053105     -1.879992      1.666683
  H       2.486639     -0.874682      1.593819
  H       1.561437     -0.428431     -1.887278
  H       1.934469     -1.931460     -1.039545
  H       3.996741     -0.708794     -1.704557
  H       3.490222      0.711728     -0.750207
  H       3.915956     -0.819983      0.061398
  H       0.721968      4.720777     -1.601556
  H      -0.767860      4.262853     -0.721947
  H      -0.506793      3.664757     -2.390553
  H      -0.188664     -2.424619      0.044990
  H      -1.849481     -2.520594     -0.524080
  H      -1.636176     -3.627396      1.675628
  H      -1.046731     -2.128091      2.430131
  H      -2.716018     -2.228114      1.821194
  H      -2.520045      1.013429      0.218577
  H      -3.257449     -0.566038      0.541459
  H      -3.102290     -1.127305     -1.931779
  H      -2.399378      0.489722     -2.222678
  H      -4.074301      0.331194     -1.632697
39
Coordinates from ORCA-job opt E -1074.864480046779
  C       0.825390      0.031907      2.544452
  C       1.374959     -0.912204      1.483781
  N       1.122517     -0.415109      0.135702
  C       2.044659     -0.790713     -0.938808
  C       3.466222     -0.279409     -0.742513
  C      -0.122482      0.093436     -0.222191
  N      -0.269764      1.244670     -0.847062
  P       0.831165      2.453779     -0.849712
  C      -0.032263      3.867975     -1.531835
  O       1.652827      2.751251      0.360528
  F       1.833154      2.122344     -2.101454
  N      -1.231715     -0.604234      0.091943
  C      -1.247059     -2.058806      0.238557
  C      -1.701493     -2.557005      1.606089
  C      -2.541586      0.028733     -0.062868
  C      -3.095122     -0.053874     -1.481910
  H       1.129708     -0.304272      3.547443
  H       1.207898      1.049546      2.369466
  H      -0.275061      0.075085      2.524684
  H       1.016768     -1.948634      1.643271
  H       2.467191     -0.959611      1.595666
  H       1.643446     -0.368649     -1.870282
  H       2.051987     -1.893081     -1.064112
  H       4.076699     -0.544457     -1.620082
  H       3.473581      0.815640     -0.631824
  H       3.953395     -0.728352      0.136624
  H       0.688326      4.686013     -1.680040
  H      -0.811250      4.196733     -0.829805
  H      -0.497325      3.591640     -2.489193
  H      -0.248064     -2.438285     -0.011130
  H      -1.926278     -2.452520     -0.536566
  H      -1.720609     -3.658224      1.602775
  H      -1.027592     -2.231946      2.412054
  H      -2.718817     -2.211936      1.847952
  H      -2.442757      1.075703      0.247949
  H      -3.225973     -0.463307      0.645676
  H      -3.178653     -1.098033     -1.824369
  H      -2.445055      0.494909     -2.178784
  H      -4.100975      0.393294     -1.520074
39
Coordinates from ORCA-job opt E -1074.865416289979
  C       0.829210     -0.078012      2.522714
  C       1.361641     -1.027979      1.456116
  N       1.135984     -0.504373      0.113011
  C       2.159797     -0.741686     -0.909469
  C       3.510056     -0.100066     -0.608108
  C      -0.076385      0.025898     -0.276071
  N      -0.196138      1.127749     -1.000186
  P       0.850663      2.380111     -0.997990
  C      -0.085698      3.781420     -1.611045
  O       1.697510      2.672030      0.199054
  F       1.834418      2.140676     -2.283329
  N      -1.208686     -0.588751      0.122191
  C      -1.310928     -2.039557      0.231118
  C      -1.777231     -2.562807      1.588423
  C      -2.481810      0.112589     -0.000626
  C      -3.132609      0.002479     -1.378694
  H       1.126915     -0.426275      3.525068
  H       1.236786      0.933523      2.357461
  H      -0.269852     -0.007236      2.500586
  H       0.978410     -2.059770      1.595867
  H       2.451809     -1.096213      1.576477
  H       1.776706     -0.318133     -1.847214
  H       2.275580     -1.834655     -1.061166
  H       4.189599     -0.258552     -1.462353
  H       3.401688      0.985221     -0.449885
  H       4.001433     -0.542028      0.274210
  H       0.600190      4.627797     -1.774688
  H      -0.855145      4.074494     -0.883118
  H      -0.569618      3.499692     -2.560038
  H      -0.342837     -2.475619     -0.051862
  H      -2.025630     -2.369108     -0.544085
  H      -1.885446     -3.659028      1.540571
  H      -1.066709     -2.328959      2.396033
  H      -2.761652     -2.150488      1.865581
  H      -2.304829      1.164384      0.251579
  H      -3.156188     -0.297687      0.769810
  H      -3.292257     -1.049074     -1.672679
  H      -2.502304      0.487947     -2.139296
  H      -4.116444      0.500045     -1.373967
39
Coordinates from ORCA-job opt E -1074.866423677576
  C       0.875791     -0.142657      2.526496
  C       1.346006     -1.095355      1.432129
  N       1.134655     -0.546570      0.095627
  C       2.202822     -0.730764     -0.891514
  C       3.523020     -0.048964     -0.544416
  C      -0.056689      0.011594     -0.295987
  N      -0.163073      1.099800     -1.044655
  P       0.836427      2.385424     -1.041313
  C      -0.138579      3.755394     -1.665452
  O       1.662498      2.714738      0.163844
  F       1.838768      2.168359     -2.307283
  N      -1.201328     -0.581702      0.114698
  C      -1.320279     -2.031172      0.232830
  C      -1.799135     -2.544191      1.589681
  C      -2.462857      0.140659      0.005725
  C      -3.146467      0.040605     -1.357099
  H       1.168445     -0.528232      3.516189
  H       1.337277      0.848285      2.382702
  H      -0.216666     -0.010588      2.521699
  H       0.914197     -2.108587      1.554587
  H       2.433033     -1.218004      1.537468
  H       1.835213     -0.320652     -1.841036
  H       2.356612     -1.818221     -1.035715
  H       4.228811     -0.167101     -1.383467
  H       3.373529      1.026746     -0.366044
  H       4.007884     -0.489928      0.342125
  H       0.518423      4.621222     -1.840505
  H      -0.917077      4.030475     -0.940498
  H      -0.613712      3.452831     -2.612009
  H      -0.357297     -2.483537     -0.041090
  H      -2.032046     -2.363162     -0.543798
  H      -1.917402     -3.638874      1.549553
  H      -1.091905     -2.310834      2.400191
  H      -2.780415     -2.119914      1.858541
  H      -2.265253      1.191194      0.250174
  H      -3.133996     -0.249803      0.789138
  H      -3.342073     -1.006612     -1.642402
  H      -2.521498      0.503892     -2.135370
  H      -4.115664      0.564206     -1.333746
39
Coordinates from ORCA-job opt E -1074.867316722384
  C       0.897184     -0.243360      2.516104
  C       1.339148     -1.168912      1.389111
  N       1.139526     -0.588718      0.060816
  C       2.260086     -0.683671     -0.879958
  C       3.534317      0.036746     -0.453779
  C      -0.039559     -0.017101     -0.328392
  N      -0.132504      1.059612     -1.091641
  P       0.820521      2.373840     -1.090303
  C      -0.177934      3.702673     -1.761416
  O       1.606056      2.749789      0.129861
  F       1.855052      2.159052     -2.324131
  N      -1.197194     -0.589285      0.099522
  C      -1.347193     -2.039324      0.231439
  C      -1.811487     -2.522306      1.600673
  C      -2.438783      0.175541      0.031654
  C      -3.164239      0.107983     -1.308009
  H       1.181725     -0.670943      3.488673
  H       1.385926      0.736468      2.409289
  H      -0.190140     -0.080891      2.520023
  H       0.880467     -2.166665      1.482659
  H       2.421181     -1.330266      1.485064
  H       1.915084     -0.275733     -1.838677
  H       2.466488     -1.757006     -1.037732
  H       4.278326     -0.024562     -1.262597
  H       3.331683      1.094488     -0.242385
  H       3.992924     -0.414541      0.439558
  H       0.453969      4.582869     -1.942442
  H      -0.973557      3.964304     -1.050876
  H      -0.630528      3.373920     -2.707145
  H      -0.399964     -2.514855     -0.050671
  H      -2.077367     -2.368285     -0.527905
  H      -1.943165     -3.613818      1.579777
  H      -1.089705     -2.282948      2.394995
  H      -2.780588     -2.080750      1.877045
  H      -2.200525      1.219507      0.274341
  H      -3.098614     -0.195017      0.831426
  H      -3.421540     -0.925823     -1.585291
  H      -2.542216      0.538982     -2.105109
  H      -4.102863      0.679004     -1.253569
39
Coordinates from ORCA-job opt E -1074.867645344257
  C       0.948129     -0.276241      2.516705
  C       1.340166     -1.204172      1.375113
  N       1.140754     -0.610039      0.051056
  C       2.275682     -0.668615     -0.875032
  C       3.524078      0.082086     -0.429434
  C      -0.034077     -0.024083     -0.325466
  N      -0.117494      1.049922     -1.090507
  P       0.812279      2.377258     -1.091631
  C      -0.192677      3.681211     -1.798105
  O       1.566230      2.780267      0.139258
  F       1.870644      2.161298     -2.304557
  N      -1.197482     -0.591282      0.100461
  C      -1.362731     -2.041561      0.231522
  C      -1.841686     -2.513262      1.597880
  C      -2.431257      0.189473      0.037222
  C      -3.162311      0.118817     -1.297293
  H       1.223886     -0.728206      3.480019
  H       1.473785      0.684309      2.418310
  H      -0.131645     -0.071691      2.533441
  H       0.843592     -2.181312      1.467069
  H       2.414778     -1.414486      1.451377
  H       1.931344     -0.277777     -1.840563
  H       2.514653     -1.734765     -1.029601
  H       4.280973      0.037535     -1.225789
  H       3.291077      1.133257     -0.220406
  H       3.973726     -0.357894      0.473014
  H       0.427687      4.569224     -1.975739
  H      -1.000220      3.933721     -1.097670
  H      -0.628627      3.339890     -2.745712
  H      -0.416766     -2.523859     -0.042498
  H      -2.090446     -2.363741     -0.532629
  H      -1.972221     -3.604383      1.582100
  H      -1.128936     -2.267139      2.396966
  H      -2.812599     -2.069774      1.861030
  H      -2.179233      1.232574      0.271506
  H      -3.087794     -0.169397      0.843878
  H      -3.442173     -0.912661     -1.558388
  H      -2.535027      0.525611     -2.101877
  H      -4.088062      0.709887     -1.245030
39
Coordinates from ORCA-job opt E -1074.867878837351
  C       0.999243     -0.325985      2.494280
  C       1.339877     -1.266237      1.347607
  N       1.149938     -0.657586      0.026737
  C       2.316400     -0.645517     -0.860743
  C       3.511217      0.154930     -0.359639
  C      -0.015895     -0.053839     -0.341402
  N      -0.086920      1.011262     -1.119136
  P       0.794030      2.367289     -1.112886
  C      -0.229663      3.628340     -1.867587
  O       1.490563      2.806866      0.138067
  F       1.898713      2.176498     -2.291777
  N      -1.185750     -0.594900      0.103148
  C      -1.395415     -2.041204      0.219783
  C      -1.869677     -2.508057      1.588855
  C      -2.398140      0.223531      0.064047
  C      -3.161518      0.161160     -1.252397
  H       1.254552     -0.796385      3.454568
  H       1.567529      0.610840      2.399682
  H      -0.070575     -0.073058      2.513310
  H       0.797241     -2.217101      1.442560
  H       2.402427     -1.533988      1.408600
  H       1.985869     -0.264408     -1.834600
  H       2.612003     -1.696654     -1.019445
  H       4.300873      0.147057     -1.124573
  H       3.225814      1.193883     -0.152691
  H       3.936369     -0.274539      0.559615
  H       0.366272      4.535677     -2.031638
  H      -1.063649      3.856955     -1.189864
  H      -0.627950      3.266404     -2.823919
  H      -0.468162     -2.547192     -0.074500
  H      -2.144546     -2.329331     -0.536959
  H      -2.022945     -3.596462      1.568514
  H      -1.143403     -2.279772      2.381069
  H      -2.828182     -2.045645      1.864507
  H      -2.108324      1.259814      0.282125
  H      -3.042540     -0.109549      0.891520
  H      -3.485987     -0.862732     -1.490631
  H      -2.536626      0.531716     -2.076016
  H      -4.063065      0.787917     -1.188190
39
Coordinates from ORCA-job opt E -1074.867944380267
  C       1.032834     -0.310727      2.485134
  C       1.342791     -1.269579      1.345056
  N       1.146918     -0.664998      0.023196
  C       2.306554     -0.649079     -0.871021
  C       3.501094      0.152995     -0.370472
  C      -0.022549     -0.054824     -0.334051
  N      -0.089745      1.019138     -1.097689
  P       0.786314      2.376685     -1.080747
  C      -0.221422      3.630979     -1.867567
  O       1.446392      2.824125      0.186009
  F       1.923169      2.183428     -2.231577
  N      -1.191562     -0.602330      0.100328
  C      -1.398954     -2.048055      0.224315
  C      -1.876846     -2.504344      1.596266
  C      -2.407259      0.212950      0.057647
  C      -3.159044      0.153960     -1.266265
  H       1.275413     -0.780217      3.449518
  H       1.622608      0.612249      2.382132
  H      -0.031392     -0.032594      2.501729
  H       0.777273     -2.205868      1.455956
  H       2.398856     -1.565870      1.393845
  H       1.969281     -0.267091     -1.842848
  H       2.606820     -1.698545     -1.036608
  H       4.293157      0.140931     -1.133240
  H       3.219042      1.194227     -0.167906
  H       3.920242     -0.275303      0.552499
  H       0.375146      4.541550     -2.012916
  H      -1.072179      3.855059     -1.208981
  H      -0.595715      3.269018     -2.833879
  H      -0.469292     -2.552983     -0.064593
  H      -2.145636     -2.339841     -0.533218
  H      -2.014617     -3.595404      1.589310
  H      -1.158945     -2.254653      2.390164
  H      -2.843718     -2.051404      1.859303
  H      -2.122021      1.248194      0.284091
  H      -3.054930     -0.128651      0.879419
  H      -3.480221     -0.869934     -1.509643
  H      -2.525953      0.526821     -2.083009
  H      -4.061906      0.779985     -1.209687
39
Coordinates from ORCA-job opt E -1074.868002891684
  C       1.064097     -0.315547      2.476648
  C       1.343522     -1.287481      1.338316
  N       1.148089     -0.680874      0.017468
  C       2.314246     -0.642214     -0.866712
  C       3.497309      0.163901     -0.342966
  C      -0.018645     -0.063633     -0.336344
  N      -0.083956      1.005554     -1.107943
  P       0.783914      2.366770     -1.102329
  C      -0.245598      3.622377     -1.859739
  O       1.465633      2.808364      0.155117
  F       1.901856      2.191332     -2.276154
  N      -1.188176     -0.602251      0.103481
  C      -1.404911     -2.045004      0.231376
  C      -1.895915     -2.496700      1.601853
  C      -2.400236      0.216628      0.052755
  C      -3.148082      0.159220     -1.274686
  H       1.295524     -0.787258      3.443312
  H       1.676277      0.592794      2.369986
  H       0.006777     -0.010757      2.492840
  H       0.756910     -2.210454      1.457714
  H       2.393054     -1.608207      1.377409
  H       1.981090     -0.245314     -1.834206
  H       2.625330     -1.686804     -1.046217
  H       4.298186      0.168604     -1.097475
  H       3.208415      1.201738     -0.129458
  H       3.911229     -0.274754      0.578214
  H       0.343880      4.537769     -2.008464
  H      -1.085281      3.837905     -1.184082
  H      -0.636606      3.265902     -2.822413
  H      -0.476953     -2.557394     -0.051541
  H      -2.148733     -2.333813     -0.530457
  H      -2.033430     -3.588357      1.599980
  H      -1.186059     -2.242467      2.402174
  H      -2.866201     -2.042920      1.853048
  H      -2.112115      1.250739      0.278913
  H      -3.053152     -0.120574      0.872890
  H      -3.471995     -0.864211     -1.518908
  H      -2.509738      0.528944     -2.089527
  H      -4.049557      0.788447     -1.223875
39
Coordinates from ORCA-job opt E -1074.868040840726
  C       1.070436     -0.311394      2.474871
  C       1.340669     -1.288317      1.338180
  N       1.145426     -0.685484      0.015490
  C       2.313752     -0.645071     -0.866449
  C       3.496289      0.161210     -0.341755
  C      -0.019888     -0.067350     -0.339945
  N      -0.084848      1.005048     -1.107374
  P       0.780006      2.367492     -1.096845
  C      -0.247726      3.622102     -1.858787
  O       1.454897      2.811131      0.164180
  F       1.904933      2.193815     -2.263238
  N      -1.190218     -0.603264      0.101574
  C      -1.409021     -2.045428      0.230384
  C      -1.888947     -2.497394      1.604578
  C      -2.401362      0.216234      0.049511
  C      -3.146595      0.161575     -1.279232
  H       1.296722     -0.782430      3.442899
  H       1.690641      0.590826      2.367296
  H       0.015924      0.002838      2.489330
  H       0.748365     -2.206184      1.462199
  H       2.388077     -1.615540      1.375354
  H       1.982365     -0.245771     -1.833206
  H       2.625223     -1.689040     -1.046053
  H       4.298087      0.166736     -1.095194
  H       3.207618      1.198898     -0.128920
  H       3.910921     -0.277026      0.579072
  H       0.340720      4.538307     -2.004621
  H      -1.092101      3.836784     -1.188977
  H      -0.632038      3.265229     -2.823735
  H      -0.485706     -2.561279     -0.060218
  H      -2.160018     -2.333167     -0.524954
  H      -2.024111     -3.588998      1.605449
  H      -1.173927     -2.240541      2.399408
  H      -2.858172     -2.045544      1.862211
  H      -2.114276      1.250453      0.278394
  H      -3.057211     -0.121430      0.866611
  H      -3.468454     -0.861541     -1.527148
  H      -2.507455      0.534416     -2.091694
  H      -4.048998      0.789101     -1.228645
39
Coordinates from ORCA-job opt E -1074.868054096699
  C       1.089991     -0.308020      2.472404
  C       1.338696     -1.291938      1.336883
  N       1.142125     -0.690652      0.013720
  C       2.311239     -0.644236     -0.867213
  C       3.493177      0.159734     -0.338383
  C      -0.022648     -0.070150     -0.339930
  N      -0.086460      1.005378     -1.102994
  P       0.775665      2.368859     -1.090606
  C      -0.251154      3.621753     -1.856570
  O       1.446951      2.815109      0.171772
  F       1.904388      2.196820     -2.253531
  N      -1.194082     -0.605826      0.099422
  C      -1.412693     -2.047472      0.233143
  C      -1.889085     -2.494322      1.610017
  C      -2.406067      0.212143      0.043887
  C      -3.142617      0.162906     -1.289624
  H       1.307072     -0.781106      3.441391
  H       1.727052      0.581927      2.363352
  H       0.041388      0.025923      2.486139
  H       0.733384     -2.199389      1.468625
  H       2.381153     -1.635326      1.366632
  H       1.980311     -0.238292     -1.831178
  H       2.623615     -1.686681     -1.052350
  H       4.296395      0.167474     -1.090197
  H       3.205093      1.197090     -0.123775
  H       3.907151     -0.280987      0.581453
  H       0.336384      4.538741     -2.000026
  H      -1.098881      3.835539     -1.190795
  H      -0.630702      3.264528     -2.823085
  H      -0.490905     -2.565461     -0.058246
  H      -2.165941     -2.337900     -0.518872
  H      -2.016820     -3.586602      1.618455
  H      -1.175691     -2.227095      2.402849
  H      -2.861077     -2.047078      1.864929
  H      -2.123179      1.245995      0.280282
  H      -3.066872     -0.131268      0.854388
  H      -3.458453     -0.859892     -1.546128
  H      -2.499952      0.543643     -2.095423
  H      -4.047953      0.786134     -1.240817
39
Coordinates from ORCA-job opt E -1074.868061304500
  C       1.106917     -0.301912      2.470923
  C       1.337083     -1.292419      1.337287
  N       1.138901     -0.693343      0.013526
  C       2.307806     -0.644407     -0.867686
  C       3.489391      0.158946     -0.337864
  C      -0.025520     -0.070735     -0.338374
  N      -0.088058      1.007579     -1.097339
  P       0.776387      2.369289     -1.085838
  C      -0.250377      3.625044     -1.846977
  O       1.454126      2.813404      0.173989
  F       1.900157      2.196324     -2.253286
  N      -1.197997     -0.607459      0.097177
  C      -1.415193     -2.048951      0.234970
  C      -1.890999     -2.491705      1.613313
  C      -2.411523      0.207941      0.036252
  C      -3.141790      0.156875     -1.300583
  H       1.316199     -0.776319      3.440942
  H       1.758734      0.576963      2.359915
  H       0.063871      0.049382      2.484268
  H       0.720539     -2.190796      1.476400
  H       2.375132     -1.649709      1.360936
  H       1.976707     -0.235896     -1.830459
  H       2.620670     -1.686294     -1.054786
  H       4.293234      0.166566     -1.088979
  H       3.201168      1.196515     -0.124282
  H       3.903196     -0.281293      0.582257
  H       0.338591      4.540991     -1.990948
  H      -1.096146      3.839839     -1.179045
  H      -0.633023      3.269952     -2.813008
  H      -0.493322     -2.567405     -0.055307
  H      -2.168518     -2.342293     -0.515828
  H      -2.011802     -3.584675      1.627627
  H      -1.180645     -2.215460      2.405788
  H      -2.866000     -2.048936      1.864369
  H      -2.133081      1.242560      0.274926
  H      -3.075311     -0.138125      0.843063
  H      -3.450718     -0.867331     -1.559813
  H      -2.497970      0.542401     -2.103032
  H      -4.050813      0.774893     -1.254494
39
Coordinates from ORCA-job opt E -1074.868059536385
  C       1.119832     -0.302284      2.470520
  C       1.337363     -1.294575      1.335976
  N       1.139202     -0.693315      0.013219
  C       2.309030     -0.641199     -0.867029
  C       3.492749      0.154498     -0.330963
  C      -0.025053     -0.070018     -0.337541
  N      -0.088166      1.007776     -1.097344
  P       0.772287      2.372109     -1.085622
  C      -0.258236      3.624049     -1.847811
  O       1.449930      2.818673      0.173217
  F       1.895902      2.202541     -2.254370
  N      -1.198033     -0.606739      0.097123
  C      -1.416241     -2.048188      0.235695
  C      -1.896388     -2.488924      1.613163
  C      -2.411646      0.208712      0.034075
  C      -3.140939      0.154775     -1.303177
  H       1.324998     -0.779649      3.439969
  H       1.781074      0.569492      2.359290
  H       0.080660      0.060257      2.485451
  H       0.713014     -2.186842      1.477603
  H       2.372015     -1.661926      1.355294
  H       1.979912     -0.224975     -1.827109
  H       2.618666     -1.682745     -1.061056
  H       4.297474      0.162852     -1.081095
  H       3.207817      1.191951     -0.112575
  H       3.903951     -0.292124      0.587207
  H       0.328332      4.541479     -1.992117
  H      -1.105566      3.837073     -1.181316
  H      -0.638406      3.266547     -2.813899
  H      -0.493797     -2.567079     -0.052114
  H      -2.167889     -2.341565     -0.516672
  H      -2.015701     -3.582062      1.628875
  H      -1.189521     -2.210268      2.407804
  H      -2.872846     -2.047013      1.859888
  H      -2.133507      1.243716      0.271167
  H      -3.075746     -0.136500      0.840999
  H      -3.446867     -0.870473     -1.561658
  H      -2.497993      0.541653     -2.105617
  H      -4.051667      0.770306     -1.257450
39
Coordinates from ORCA-job opt E -1074.868065342342
  C       1.111981     -0.299874      2.470831
  C       1.337200     -1.291722      1.337383
  N       1.138946     -0.692342      0.013831
  C       2.307921     -0.643553     -0.867538
  C       3.491264      0.156034     -0.336133
  C      -0.025726     -0.070206     -0.337970
  N      -0.089006      1.008033     -1.097011
  P       0.775223      2.370243     -1.085288
  C      -0.253499      3.625623     -1.844250
  O       1.456027      2.813673      0.172879
  F       1.896271      2.198176     -2.255859
  N      -1.198219     -0.607870      0.096265
  C      -1.414866     -2.049474      0.235090
  C      -1.893852     -2.490520      1.612910
  C      -2.411945      0.207399      0.034547
  C      -3.141423      0.155083     -1.302707
  H       1.320053     -0.775203      3.440712
  H       1.767604      0.576145      2.359070
  H       0.070493      0.055921      2.485240
  H       0.717254     -2.187505      1.478057
  H       2.373828     -1.653298      1.359628
  H       1.977613     -0.232747     -1.829603
  H       2.618342     -1.685860     -1.056830
  H       4.295056      0.162278     -1.087326
  H       3.204854      1.193933     -0.121537
  H       3.903803     -0.286207      0.583585
  H       0.335126      4.541698     -1.989128
  H      -1.098749      3.840141     -1.175577
  H      -0.636788      3.269918     -2.809831
  H      -0.491731     -2.567116     -0.052826
  H      -2.166311     -2.343804     -0.517085
  H      -2.013481     -3.583672      1.628261
  H      -1.185996     -2.212373      2.406932
  H      -2.869955     -2.048383      1.860828
  H      -2.133408      1.242047      0.272394
  H      -3.075821     -0.138456      0.841479
  H      -3.448539     -0.869655     -1.561839
  H      -2.498120      0.541794     -2.105085
  H      -4.051426      0.771702     -1.256501
39
Coordinates from ORCA-job opt E -1074.868065096486
  C       1.112029     -0.300190      2.470602
  C       1.336867     -1.292167      1.337144
  N       1.138977     -0.692594      0.013590
  C       2.308470     -0.643172     -0.867046
  C       3.491128      0.157106     -0.334999
  C      -0.025519     -0.070386     -0.338391
  N      -0.088690      1.007622     -1.097847
  P       0.775427      2.369940     -1.085921
  C      -0.253378      3.625142     -1.845134
  O       1.455914      2.813459      0.172323
  F       1.896779      2.197738     -2.256203
  N      -1.198015     -0.607867      0.096089
  C      -1.415049     -2.049422      0.234359
  C      -1.893687     -2.490940      1.612182
  C      -2.411472      0.207903      0.035166
  C      -3.142306      0.155288     -1.301375
  H       1.320085     -0.775683      3.440431
  H       1.767931      0.575633      2.358857
  H       0.070654      0.055951      2.485191
  H       0.716331     -2.187589      1.477737
  H       2.373244     -1.654397      1.359574
  H       1.978481     -0.232804     -1.829430
  H       2.619423     -1.685391     -1.056097
  H       4.295293      0.163506     -1.085808
  H       3.204035      1.194865     -0.120611
  H       3.903205     -0.284894      0.585054
  H       0.335161      4.541268     -1.990181
  H      -1.098825      3.839693     -1.176728
  H      -0.636350      3.269016     -2.810715
  H      -0.492067     -2.567025     -0.054109
  H      -2.166823     -2.343174     -0.517751
  H      -2.013667     -3.584076      1.627059
  H      -1.185450     -2.213347      2.406095
  H      -2.869577     -2.048617      1.860644
  H      -2.132086      1.242507      0.272159
  H      -3.074723     -0.137156      0.842950
  H      -3.450239     -0.869445     -1.559655
  H      -2.499595      0.541216     -2.104603
  H      -4.051916      0.772484     -1.254599
