32
Coordinates from ORCA-job opt E -1235.936475604756
  C          -1.76967262573790     -3.22947623282781      0.99185179707189
  C          -1.61318870380201     -1.85222732924770      1.58592601335458
  O          -1.74133103922537     -0.88777142297773      0.51757247421012
  P          -1.54159007619790      0.66195326075481      0.79375486081215
  O          -2.31239532501604      1.29738142760488      1.87944899181120
  O          -1.74364804871688      1.19861104618622     -0.68627918608253
  C          -1.80513124042494      2.61853847856886     -0.95817056199179
  C          -3.23360123883843      3.11031632678145     -0.92764943125661
  O           0.04760013609832      0.84244195968926      1.12562433669981
  C           1.12111884358457      0.33673623798702      0.45035506691838
  C           1.02719341462562     -0.27626256915599     -0.80353432002428
  C           2.18020078582685     -0.76147232899319     -1.40958631010725
  C           3.40153645576424     -0.62398952771200     -0.75908012783754
  N           4.61295851317507     -1.13766590816939     -1.40418870012842
  O           4.50011717794292     -1.67086788485422     -2.48732353885351
  O           5.66830688279325     -1.00389203261929     -0.82236444301127
  C           3.50685955182023     -0.01089023167219      0.48780389045357
  C           2.35650862274953      0.47039821199435      1.09341483369165
  H          -1.67214066543824     -3.98539181909600      1.78403491483218
  H          -0.99317759012899     -3.41623196947118      0.23572238933179
  H          -2.75710283544391     -3.34170383686488      0.52136245443546
  H          -0.62465214151613     -1.73077693512771      2.05786186135164
  H          -2.38557896430576     -1.64084661830432      2.34101112220314
  H          -1.17295498769525      3.15772205477371     -0.23513819723378
  H          -1.35365121864141      2.73689796689725     -1.95195182526332
  H          -3.66397437447364      2.99136105992786      0.07692792797412
  H          -3.85099354764270      2.55293408742072     -1.64696219556372
  H          -3.26281887623670      4.17639565139606     -1.19617047641639
  H           0.06811816341874     -0.37464163314741     -1.31133205886551
  H           2.13312475866094     -1.24397664467902     -2.38588620707464
  H           4.47896531450882      0.08201192389108      0.97214572232360
  H           2.39499488851307      0.95438521104651      2.07079892223529
