32
Coordinates from ORCA-job opt E -1235.926409144580
  C      -1.799603     -3.306168      1.175124
  C      -1.838278     -1.863720      1.634571
  O      -1.766195     -1.023651      0.496109
  P      -1.555602      0.550872      0.774953
  O      -2.495056      1.125185      1.790958
  O      -1.681353      1.208034     -0.692228
  C      -1.633610      2.621536     -0.779448
  C      -3.032548      3.158887     -1.000094
  O       0.002758      0.694990      1.154986
  C       1.075657      0.261311      0.430272
  C       0.993918     -0.395952     -0.796424
  C       2.160500     -0.800094     -1.455564
  C       3.410145     -0.541284     -0.877958
  N       4.635039     -0.964621     -1.568063
  O       4.512332     -1.545479     -2.655739
  O       5.719221     -0.715873     -1.021834
  C       3.498096      0.118483      0.353173
  C       2.326223      0.516730      1.001317
  H      -1.856901     -3.989162      2.027206
  H      -0.877213     -3.508974      0.620746
  H      -2.632132     -3.517415      0.495916
  H      -0.994324     -1.659522      2.301272
  H      -2.770739     -1.662353      2.170918
  H      -1.188806      3.055975      0.122172
  H      -0.993240      2.883885     -1.627074
  H      -3.688295      2.890082     -0.165847
  H      -3.473831      2.725464     -1.903664
  H      -3.020229      4.247729     -1.100894
  H       0.039325     -0.610802     -1.269249
  H       2.075139     -1.312214     -2.412399
  H       4.459396      0.328402      0.817675
  H       2.390207      1.029719      1.959109
32
Coordinates from ORCA-job opt E -1235.933460699395
  C      -1.807088     -3.307604      1.136368
  C      -1.828976     -1.883988      1.645494
  O      -1.775128     -0.999338      0.517949
  P      -1.549327      0.562067      0.808483
  O      -2.428555      1.153569      1.851633
  O      -1.700545      1.183396     -0.661995
  C      -1.653290      2.610411     -0.805959
  C      -3.047752      3.164039     -1.017901
  O       0.019660      0.700677      1.167803
  C       1.094493      0.265341      0.441288
  C       1.000467     -0.391418     -0.787291
  C       2.160335     -0.793045     -1.442885
  C       3.400397     -0.535872     -0.863695
  N       4.612964     -0.959429     -1.554082
  O       4.494839     -1.526405     -2.621340
  O       5.681637     -0.725701     -1.027045
  C       3.504238      0.118740      0.362921
  C       2.344873      0.518936      1.012860
  H      -1.852714     -4.014431      1.975845
  H      -0.888646     -3.500138      0.561626
  H      -2.662348     -3.494718      0.469972
  H      -0.964551     -1.701140      2.304945
  H      -2.750672     -1.687651      2.214522
  H      -1.177596      3.074621      0.072516
  H      -1.017014      2.822691     -1.676764
  H      -3.686889      2.947222     -0.149270
  H      -3.515883      2.701813     -1.899772
  H      -3.013230      4.252496     -1.167721
  H       0.039524     -0.601513     -1.256215
  H       2.083689     -1.304824     -2.402183
  H       4.475305      0.318782      0.816065
  H       2.407781      1.032415      1.973828
32
Coordinates from ORCA-job opt E -1235.935600556996
  C      -1.811188     -3.293294      1.082690
  C      -1.815491     -1.891879      1.642929
  O      -1.785595     -0.964332      0.535496
  P      -1.545334      0.582819      0.837675
  O      -2.356312      1.194512      1.909225
  O      -1.719900      1.167371     -0.634414
  C      -1.676714      2.598343     -0.835186
  C      -3.072197      3.151672     -1.019113
  O       0.033967      0.717218      1.179840
  C       1.109248      0.275041      0.456724
  C       1.001963     -0.387624     -0.769151
  C       2.157917     -0.796003     -1.421982
  C       3.394976     -0.540626     -0.844332
  N       4.606509     -0.974642     -1.538360
  O       4.484367     -1.534855     -2.601413
  O       5.672540     -0.742879     -1.020082
  C       3.511981      0.117665      0.376905
  C       2.360247      0.526741      1.027904
  H      -1.841208     -4.022516      1.905341
  H      -0.902377     -3.472387      0.487491
  H      -2.687123     -3.457507      0.436291
  H      -0.933506     -1.725122      2.285080
  H      -2.719942     -1.699728      2.241894
  H      -1.165930      3.084809      0.012264
  H      -1.058808      2.759960     -1.730322
  H      -3.677097      2.981944     -0.114969
  H      -3.572875      2.662933     -1.869240
  H      -3.026687      4.233450     -1.214546
  H       0.034614     -0.591179     -1.228602
  H       2.089039     -1.312693     -2.379325
  H       4.491511      0.307704      0.816314
  H       2.419404      1.045085      1.986976
32
Coordinates from ORCA-job opt E -1235.935543537438
  C      -1.810286     -3.283532      1.049666
  C      -1.798797     -1.896284      1.640155
  O      -1.797164     -0.943473      0.548831
  P      -1.547957      0.596250      0.851543
  O      -2.311389      1.225766      1.941435
  O      -1.734184      1.158593     -0.621441
  C      -1.692818      2.587877     -0.860388
  C      -3.090418      3.140048     -1.012500
  O       0.038673      0.728740      1.185222
  C       1.113646      0.285514      0.464483
  C       1.001276     -0.370805     -0.765320
  C       2.156936     -0.781290     -1.418581
  C       3.393481     -0.533052     -0.837162
  N       4.607349     -0.969671     -1.534465
  O       4.477985     -1.573278     -2.575420
  O       5.670222     -0.798858     -0.981480
  C       3.515174      0.117881      0.387620
  C       2.364592      0.529824      1.039930
  H      -1.822514     -4.026220      1.860744
  H      -0.913993     -3.453053      0.434457
  H      -2.703317     -3.435057      0.425221
  H      -0.900596     -1.735603      2.259602
  H      -2.685484     -1.707179      2.264842
  H      -1.152093      3.085664     -0.039109
  H      -1.097496      2.714237     -1.775321
  H      -3.661935      3.003758     -0.082229
  H      -3.620583      2.634337     -1.833412
  H      -3.041180      4.215344     -1.239546
  H       0.030574     -0.563581     -1.221319
  H       2.095148     -1.293372     -2.378955
  H       4.499198      0.296649      0.821512
  H       2.417951      1.043822      2.001385
32
Coordinates from ORCA-job opt E -1235.934998251784
  C      -1.826598     -3.267611      1.012021
  C      -1.782659     -1.900559      1.641472
  O      -1.821079     -0.914542      0.575193
  P      -1.554235      0.615072      0.870464
  O      -2.243620      1.278855      1.982307
  O      -1.751537      1.141880     -0.605227
  C      -1.706355      2.563893     -0.906646
  C      -3.102763      3.122405     -1.008830
  O       0.043946      0.740282      1.195486
  C       1.117422      0.288774      0.483002
  C       0.999238     -0.359707     -0.751864
  C       2.154931     -0.780233     -1.402648
  C       3.391102     -0.549588     -0.811158
  N       4.609092     -0.999087     -1.507676
  O       4.481536     -1.505524     -2.606486
  O       5.681410     -0.758890     -0.985345
  C       3.518159      0.094475      0.417591
  C       2.367927      0.517105      1.067856
  H      -1.813642     -4.027770      1.806339
  H      -0.952641     -3.427700      0.365954
  H      -2.745487     -3.399121      0.424610
  H      -0.859968     -1.749101      2.222636
  H      -2.639386     -1.710874      2.303860
  H      -1.117425      3.075595     -0.129994
  H      -1.149506      2.629680     -1.849725
  H      -3.619760      3.043598     -0.042698
  H      -3.680544      2.593585     -1.779319
  H      -3.045537      4.184679     -1.287018
  H       0.024087     -0.531867     -1.204458
  H       2.104729     -1.286891     -2.366659
  H       4.508134      0.252771      0.845352
  H       2.411030      1.026418      2.031610
32
Coordinates from ORCA-job opt E -1235.936275543338
  C      -1.797879     -3.276452      1.038508
  C      -1.778624     -1.890758      1.632875
  O      -1.800321     -0.935549      0.546888
  P      -1.553128      0.605813      0.843100
  O      -2.313580      1.241473      1.934952
  O      -1.734347      1.169647     -0.630402
  C      -1.700179      2.596770     -0.872259
  C      -3.102914      3.141350     -1.004110
  O       0.035489      0.738120      1.181029
  C       1.108821      0.285541      0.467391
  C       0.998344     -0.376810     -0.759445
  C       2.153853     -0.799093     -1.407366
  C       3.391383     -0.556425     -0.822039
  N       4.605320     -1.005066     -1.511569
  O       4.481414     -1.559359     -2.582828
  O       5.674126     -0.788138     -0.981609
  C       3.511608      0.101274      0.400335
  C       2.359801      0.523937      1.046174
  H      -1.794920     -4.022125      1.846266
  H      -0.912348     -3.442082      0.407931
  H      -2.700580     -3.427420      0.429123
  H      -0.869569     -1.728032      2.234094
  H      -2.654052     -1.705462      2.273211
  H      -1.149500      3.095758     -0.059400
  H      -1.120272      2.722575     -1.796403
  H      -3.658928      3.005746     -0.065168
  H      -3.643668      2.631706     -1.814666
  H      -3.062562      4.215965     -1.234198
  H       0.027230     -0.564576     -1.216311
  H       2.093568     -1.316086     -2.365094
  H       4.495534      0.275346      0.835939
  H       2.410878      1.042410      2.005052
32
Coordinates from ORCA-job opt E -1235.936315127956
  C      -1.799146     -3.272784      1.036287
  C      -1.771049     -1.888643      1.633597
  O      -1.803580     -0.930930      0.550058
  P      -1.553366      0.609690      0.842223
  O      -2.308313      1.251940      1.934059
  O      -1.733084      1.168395     -0.632404
  C      -1.705045      2.594514     -0.881748
  C      -3.110183      3.135653     -1.000993
  O       0.036824      0.739996      1.181095
  C       1.109830      0.286726      0.468314
  C       1.000668     -0.366641     -0.763748
  C       2.156156     -0.789541     -1.410924
  C       3.392788     -0.556417     -0.819774
  N       4.606601     -1.005799     -1.508139
  O       4.483141     -1.557221     -2.580878
  O       5.673839     -0.806345     -0.968355
  C       3.512137      0.092440      0.407428
  C       2.360307      0.516040      1.052253
  H      -1.788704     -4.020243      1.842349
  H      -0.920576     -3.438530      0.396070
  H      -2.708808     -3.420770      0.436653
  H      -0.854922     -1.727844      2.224493
  H      -2.639046     -1.702884      2.283863
  H      -1.146013      3.097966     -0.077411
  H      -1.135723      2.715318     -1.812965
  H      -3.654896      3.005615     -0.054704
  H      -3.659110      2.620226     -1.802323
  H      -3.074205      4.208919     -1.238259
  H       0.029867     -0.545873     -1.224570
  H       2.097931     -1.299614     -2.372512
  H       4.496035      0.258539      0.846264
  H       2.409648      1.028099      2.014699
32
Coordinates from ORCA-job opt E -1235.936348482429
  C      -1.786944     -3.262456      1.020078
  C      -1.746890     -1.881207      1.623407
  O      -1.801296     -0.918539      0.545698
  P      -1.552677      0.621824      0.835635
  O      -2.305480      1.266904      1.927997
  O      -1.731893      1.178870     -0.638925
  C      -1.722047      2.604428     -0.891462
  C      -3.133931      3.132598     -0.988914
  O       0.039111      0.752720      1.176059
  C       1.111093      0.291259      0.468452
  C       1.003054     -0.364571     -0.762638
  C       2.157780     -0.797175     -1.404307
  C       3.393885     -0.571180     -0.808788
  N       4.606737     -1.030789     -1.490583
  O       4.483808     -1.582905     -2.563083
  O       5.672726     -0.842233     -0.944365
  C       3.512614      0.079986      0.417418
  C       2.361286      0.512974      1.056507
  H      -1.759930     -4.014128      1.821791
  H      -0.921575     -3.424757      0.361237
  H      -2.708606     -3.407371      0.438305
  H      -0.818978     -1.722686      2.196223
  H      -2.602012     -1.698963      2.291530
  H      -1.153863      3.114362     -0.097750
  H      -1.170211      2.727187     -1.832769
  H      -3.661466      3.001508     -0.033116
  H      -3.691433      2.609378     -1.779177
  H      -3.111906      4.205320     -1.230429
  H       0.032418     -0.537655     -1.226289
  H       2.100724     -1.309393     -2.364819
  H       4.496328      0.239767      0.859038
  H       2.409572      1.026924      2.018039
32
Coordinates from ORCA-job opt E -1235.936400104156
  C      -1.771586     -3.239721      0.993476
  C      -1.688077     -1.863559      1.604393
  O      -1.797727     -0.892673      0.539664
  P      -1.549945      0.648031      0.820706
  O      -2.302344      1.303043      1.908986
  O      -1.723326      1.199036     -0.655696
  C      -1.758200      2.621980     -0.916686
  C      -3.184548      3.118237     -0.966229
  O       0.044453      0.777519      1.166903
  C       1.114372      0.299969      0.469478
  C       1.010768     -0.346981     -0.767101
  C       2.164103     -0.798950     -1.397021
  C       3.397479     -0.600382     -0.785308
  N       4.608654     -1.080482     -1.453321
  O       4.489448     -1.618752     -2.533394
  O       5.670680     -0.921571     -0.889999
  C       3.512805      0.042931      0.445692
  C       2.362444      0.494780      1.072519
  H      -1.699809     -3.999087      1.785019
  H      -0.948747     -3.400154      0.281660
  H      -2.727351     -3.374407      0.466841
  H      -0.727742     -1.715040      2.124060
  H      -2.503192     -1.683149      2.321399
  H      -1.171462      3.150088     -0.148890
  H      -1.246955      2.748619     -1.879940
  H      -3.673757      2.986361      0.009579
  H      -3.758821      2.574184     -1.729999
  H      -3.196336      4.188526     -1.219047
  H       0.042313     -0.497327     -1.243341
  H       2.110120     -1.305097     -2.360906
  H       4.494413      0.181001      0.899195
  H       2.407874      1.003028      2.037309
32
Coordinates from ORCA-job opt E -1235.936423265284
  C      -1.758384     -3.219350      0.961325
  C      -1.629184     -1.848967      1.577645
  O      -1.789060     -0.869212      0.528106
  P      -1.546424      0.672191      0.806837
  O      -2.301934      1.329295      1.892097
  O      -1.718343      1.221180     -0.670104
  C      -1.792448      2.641786     -0.933822
  C      -3.229385      3.109649     -0.941940
  O       0.048654      0.804270      1.156263
  C       1.117276      0.309425      0.470057
  C       1.015709     -0.344462     -0.763090
  C       2.167720     -0.816449     -1.380362
  C       3.398968     -0.629798     -0.760452
  N       4.608754     -1.130686     -1.415004
  O       4.491726     -1.671486     -2.494139
  O       5.668356     -0.982549     -0.844106
  C       3.512624      0.021022      0.466879
  C       2.363435      0.491759      1.081385
  H      -1.643125     -3.986560      1.740053
  H      -0.981687     -3.378079      0.198938
  H      -2.745198     -3.343218      0.492355
  H      -0.640320     -1.712662      2.044541
  H      -2.402100     -1.669289      2.340312
  H      -1.192217      3.184609     -0.187043
  H      -1.315071      2.774108     -1.913494
  H      -3.686384      2.974198      0.048861
  H      -3.815602      2.549449     -1.684745
  H      -3.270375      4.177864     -1.200383
  H       0.048968     -0.485042     -1.246000
  H       2.114821     -1.328788     -2.341038
  H       4.492448      0.149853      0.926952
  H       2.407782      1.005940      2.043115
32
Coordinates from ORCA-job opt E -1235.936445055840
  C      -1.773635     -3.227631      0.976549
  C      -1.652474     -1.854604      1.588630
  O      -1.787295     -0.879323      0.530986
  P      -1.543833      0.662744      0.810959
  O      -2.303512      1.318406      1.893386
  O      -1.714450      1.211966     -0.666894
  C      -1.778832      2.633663     -0.928330
  C      -3.213235      3.108524     -0.950212
  O       0.049196      0.794514      1.160481
  C       1.119102      0.306128      0.470001
  C       1.016451     -0.342536     -0.765541
  C       2.169322     -0.806525     -1.387724
  C       3.401052     -0.617006     -0.770262
  N       4.611867     -1.108968     -1.431148
  O       4.493986     -1.646918     -2.511535
  O       5.673002     -0.953352     -0.865244
  C       3.515282      0.028566      0.459623
  C       2.365481      0.491386      1.079442
  H      -1.677805     -3.990957      1.761767
  H      -0.981271     -3.393057      0.231932
  H      -2.750557     -3.350862      0.487115
  H      -0.673173     -1.719852      2.075736
  H      -2.439896     -1.668554      2.334770
  H      -1.184060      3.172468     -0.174231
  H      -1.289919      2.766788     -1.902302
  H      -3.681513      2.971816      0.035119
  H      -3.794406      2.553407     -1.700791
  H      -3.245860      4.177677     -1.205861
  H       0.049596     -0.485641     -1.247378
  H       2.115188     -1.314429     -2.350696
  H       4.495251      0.160630      0.918440
  H       2.410951      1.001534      2.043212
32
Coordinates from ORCA-job opt E -1235.936456409418
  C      -1.789134     -3.227859      0.981086
  C      -1.650400     -1.854876      1.589513
  O      -1.782562     -0.880602      0.530439
  P      -1.539645      0.662368      0.810022
  O      -2.302793      1.318396      1.888911
  O      -1.709552      1.209413     -0.669411
  C      -1.779695      2.630851     -0.931556
  C      -3.215245      3.102251     -0.948867
  O       0.051579      0.794722      1.159778
  C       1.122761      0.307116      0.469089
  C       1.020824     -0.335245     -0.769617
  C       2.174595     -0.798159     -1.391422
  C       3.405040     -0.613675     -0.770489
  N       4.616848     -1.104736     -1.431635
  O       4.499780     -1.639966     -2.513385
  O       5.677540     -0.949375     -0.864981
  C       3.518162      0.025853      0.462473
  C       2.367750      0.487729      1.082266
  H      -1.692684     -3.990268      1.767160
  H      -1.004689     -3.401497      0.229988
  H      -2.771315     -3.343903      0.500521
  H      -0.666672     -1.728857      2.070071
  H      -2.430439     -1.659635      2.341102
  H      -1.183186      3.172124     -0.180531
  H      -1.294264      2.764637     -1.907212
  H      -3.680136      2.965436      0.037978
  H      -3.797785      2.544964     -1.696803
  H      -3.250493      4.170972     -1.205920
  H       0.055226     -0.474562     -1.254838
  H       2.120763     -1.301324     -2.356898
  H       4.496991      0.154667      0.924611
  H       2.412829      0.993039      2.048555
32
Coordinates from ORCA-job opt E -1235.936459521213
  C      -1.794231     -3.227021      0.978302
  C      -1.645759     -1.854654      1.585662
  O      -1.776462     -0.880143      0.526607
  P      -1.537106      0.663370      0.808219
  O      -2.301588      1.316553      1.887380
  O      -1.709623      1.210289     -0.671386
  C      -1.783668      2.631776     -0.932786
  C      -3.219846      3.101201     -0.944054
  O       0.052886      0.798739      1.156592
  C       1.124974      0.309524      0.467486
  C       1.022925     -0.335222     -0.769820
  C       2.177092     -0.800149     -1.389690
  C       3.406983     -0.614838     -0.768197
  N       4.619214     -1.108408     -1.427503
  O       4.501934     -1.649868     -2.506068
  O       5.679836     -0.949635     -0.861758
  C       3.519939      0.027235      0.463348
  C       2.369215      0.490940      1.081539
  H      -1.697019     -3.989447      1.764288
  H      -1.014162     -3.404345      0.223556
  H      -2.779351     -3.339013      0.502905
  H      -0.659429     -1.733522      2.062177
  H      -2.421361     -1.654475      2.340551
  H      -1.184409      3.173757     -0.184419
  H      -1.302195      2.766284     -1.910299
  H      -3.680531      2.964226      0.044695
  H      -3.804882      2.543200     -1.689491
  H      -3.256849      4.169791     -1.201447
  H       0.057697     -0.475175     -1.255496
  H       2.123327     -1.305521     -2.354012
  H       4.498336      0.156611      0.926206
  H       2.414113      0.997941      2.046915
32
Coordinates from ORCA-job opt E -1235.936463757828
  C      -1.798988     -3.227507      0.980535
  C      -1.644154     -1.854951      1.585806
  O      -1.774957     -0.881286      0.526119
  P      -1.536885      0.662585      0.806915
  O      -2.300966      1.315862      1.886409
  O      -1.710743      1.208188     -0.673098
  C      -1.784675      2.629375     -0.935949
  C      -3.220394      3.100259     -0.941734
  O       0.052884      0.799531      1.154489
  C       1.125593      0.310652      0.465997
  C       1.024845     -0.330719     -0.773174
  C       2.179487     -0.795675     -1.392141
  C       3.408494     -0.613422     -0.767924
  N       4.621207     -1.107118     -1.426164
  O       4.504792     -1.648095     -2.505049
  O       5.681121     -0.950030     -0.858642
  C       3.520186      0.025588      0.465316
  C       2.368923      0.489248      1.082620
  H      -1.700916     -3.989373      1.766955
  H      -1.022101     -3.407748      0.223212
  H      -2.786184     -3.337258      0.508983
  H      -0.655745     -1.736282      2.058650
  H      -2.416480     -1.651144      2.343083
  H      -1.181507      3.171618     -0.190916
  H      -1.307262      2.761904     -1.915706
  H      -3.676923      2.965647      0.049260
  H      -3.809262      2.541757     -1.683750
  H      -3.257198      4.168464     -1.200812
  H       0.060259     -0.467897     -1.260888
  H       2.126906     -1.298572     -2.357816
  H       4.497975      0.152565      0.930105
  H       2.412667      0.993835      2.049310
32
Coordinates from ORCA-job opt E -1235.936467088059
  C      -1.802239     -3.228794      0.982383
  C      -1.642451     -1.855711      1.585115
  O      -1.771370     -0.883511      0.524003
  P      -1.537286      0.660994      0.804443
  O      -2.301407      1.312547      1.885272
  O      -1.714246      1.205550     -0.675660
  C      -1.786015      2.626521     -0.939950
  C      -3.220402      3.101517     -0.937210
  O       0.052215      0.802236      1.150478
  C       1.125731      0.312935      0.463689
  C       1.026515     -0.326602     -0.776547
  C       2.181594     -0.792495     -1.393885
  C       3.409687     -0.612500     -0.767029
  N       4.622909     -1.106926     -1.423537
  O       4.507363     -1.649714     -2.501610
  O       5.682297     -0.949327     -0.855157
  C       3.519924      0.025011      0.467140
  C       2.368057      0.489306      1.082891
  H      -1.704874     -3.989771      1.769744
  H      -1.026889     -3.412133      0.224234
  H      -2.790472     -3.336625      0.512596
  H      -0.652830     -1.739195      2.055988
  H      -2.412975     -1.647984      2.343160
  H      -1.176377      3.168035     -0.199654
  H      -1.314665      2.756147     -1.923014
  H      -3.670773      2.970405      0.057059
  H      -3.815725      2.543345     -1.674283
  H      -3.255782      4.169331     -1.198174
  H       0.062484     -0.461405     -1.266076
  H       2.130449     -1.294119     -2.360292
  H       4.497131      0.150234      0.933613
  H       2.410422      0.992697      2.050269
32
Coordinates from ORCA-job opt E -1235.936468334778
  C      -1.804094     -3.230906      0.985567
  C      -1.641201     -1.856822      1.585227
  O      -1.766406     -0.886909      0.521638
  P      -1.538271      0.658530      0.801408
  O      -2.303277      1.307263      1.883671
  O      -1.719321      1.201771     -0.678701
  C      -1.787108      2.622508     -0.944975
  C      -3.219371      3.103858     -0.932128
  O       0.051041      0.806354      1.145478
  C       1.125411      0.316476      0.460738
  C       1.028028     -0.320132     -0.781176
  C       2.183454     -0.787359     -1.396674
  C       3.410440     -0.611256     -0.766359
  N       4.624094     -1.107000     -1.420791
  O       4.509649     -1.650445     -2.498674
  O       5.682869     -0.949841     -0.851111
  C       3.518973      0.023697      0.469312
  C       2.366591      0.489022      1.083298
  H      -1.709013     -3.990514      1.774512
  H      -1.028618     -3.417574      0.228356
  H      -2.792259     -3.337353      0.515318
  H      -0.651460     -1.741894      2.056248
  H      -2.411709     -1.645164      2.342183
  H      -1.169296      3.162739     -0.210512
  H      -1.322993      2.748255     -1.931974
  H      -3.662507      2.977235      0.065958
  H      -3.822843      2.546429     -1.663101
  H      -3.252279      4.171178     -1.195432
  H       0.064658     -0.451356     -1.273045
  H       2.133911     -1.286965     -2.364205
  H       4.495464      0.145912      0.938082
  H       2.407443      0.990264      2.051863
32
Coordinates from ORCA-job opt E -1235.936466831223
  C      -1.804531     -3.233539      0.989781
  C      -1.638899     -1.858124      1.585736
  O      -1.759215     -0.891227      0.518780
  P      -1.539682      0.655546      0.797595
  O      -2.306661      1.299912      1.881272
  O      -1.726353      1.196945     -0.682484
  C      -1.788844      2.617363     -0.951504
  C      -3.218134      3.107172     -0.926003
  O       0.049433      0.813087      1.138858
  C       1.124707      0.321640      0.456912
  C       1.029560     -0.310479     -0.787508
  C       2.185269     -0.780118     -1.400440
  C       3.410748     -0.610178     -0.765398
  N       4.624824     -1.108220     -1.417132
  O       4.511714     -1.651597     -2.495212
  O       5.682803     -0.952482     -0.845550
  C       3.517202      0.020849      0.472478
  C       2.364369      0.488001      1.084174
  H      -1.712549     -3.991325      1.780823
  H      -1.028449     -3.424125      0.234166
  H      -2.792241     -3.338675      0.518255
  H      -0.649574     -1.744689      2.057976
  H      -2.410183     -1.642072      2.340621
  H      -1.160607      3.155883     -0.224616
  H      -1.333818      2.738118     -1.943346
  H      -3.652231      2.986154      0.076729
  H      -3.831899      2.550679     -1.649079
  H      -3.247729      4.173802     -1.192416
  H       0.067196     -0.436036     -1.282869
  H       2.137569     -1.276576     -2.369684
  H       4.492673      0.138350      0.944582
  H       2.403533      0.985965      2.054504
32
Coordinates from ORCA-job opt E -1235.936473034035
  C      -1.801863     -3.236051      0.994474
  C      -1.635585     -1.859235      1.587098
  O      -1.751888     -0.895277      0.516884
  P      -1.541452      0.652905      0.794488
  O      -2.310913      1.292587      1.879096
  O      -1.733800      1.192166     -0.685615
  C      -1.790549      2.612217     -0.957647
  C      -3.216712      3.110558     -0.921782
  O       0.047508      0.820934      1.132727
  C       1.123357      0.327348      0.453307
  C       1.030119     -0.298674     -0.794364
  C       2.185861     -0.771156     -1.404930
  C       3.409729     -0.609531     -0.764620
  N       4.623958     -1.110392     -1.413927
  O       4.511988     -1.651752     -2.493149
  O       5.681021     -0.958342     -0.839663
  C       3.514377      0.015860      0.476259
  C       2.361417      0.485378      1.085868
  H      -1.712425     -3.991937      1.787610
  H      -1.024756     -3.429603      0.240675
  H      -2.788806     -3.341004      0.521277
  H      -0.647204     -1.745959      2.061320
  H      -2.408387     -1.640046      2.339486
  H      -1.153036      3.148931     -0.237472
  H      -1.342983      2.727999     -1.953473
  H      -3.643410      2.994878      0.084733
  H      -3.839526      2.555053     -1.637869
  H      -3.242529      4.176459     -1.191353
  H       0.068912     -0.416946     -1.293793
  H       2.139658     -1.263172     -2.376517
  H       4.488693      0.127042      0.952281
  H       2.399226      0.978762      2.058594
32
Coordinates from ORCA-job opt E -1235.936472424592
  C      -1.795297     -3.236668      0.996096
  C      -1.632093     -1.859208      1.588079
  O      -1.748450     -0.896161      0.516900
  P      -1.542671      0.652704      0.794017
  O      -2.313755      1.289763      1.878715
  O      -1.737629      1.191105     -0.686023
  C      -1.791710      2.611059     -0.959052
  C      -3.216813      3.112387     -0.922575
  O       0.046323      0.826193      1.130708
  C       1.121882      0.330456      0.452225
  C       1.028779     -0.291781     -0.797334
  C       2.184074     -0.766532     -1.407027
  C       3.407306     -0.610622     -0.764184
  N       4.621072     -1.114009     -1.412596
  O       4.509104     -1.652961     -2.493012
  O       5.677711     -0.966119     -0.836493
  C       3.511823      0.011214      0.478470
  C       2.359315      0.482742      1.087403
  H      -1.705842     -3.991823      1.789932
  H      -1.017083     -3.429681      0.243309
  H      -2.781474     -3.343367      0.521674
  H      -0.644750     -1.743899      2.063943
  H      -2.406494     -1.640881      2.339058
  H      -1.152500      3.146941     -0.239726
  H      -1.344443      2.725370     -1.955193
  H      -3.643306      2.997983      0.084164
  H      -3.841117      2.557434     -1.637812
  H      -3.240672      4.178108     -1.192931
  H       0.068092     -0.405303     -1.298865
  H       2.137856     -1.255789     -2.380010
  H       4.485603      0.118060      0.956578
  H       2.397159      0.973284      2.061558
32
Coordinates from ORCA-job opt E -1235.936471392859
  C      -1.787669     -3.235539      0.995831
  C      -1.626228     -1.857951      1.587916
  O      -1.745677     -0.894878      0.517049
  P      -1.543161      0.654485      0.793723
  O      -2.314990      1.289910      1.878544
  O      -1.740662      1.192104     -0.686301
  C      -1.794964      2.611981     -0.959753
  C      -3.220159      3.112941     -0.923664
  O       0.045943      0.831959      1.128703
  C       1.120958      0.333068      0.451263
  C       1.027836     -0.285842     -0.799912
  C       2.182600     -0.763725     -1.408295
  C       3.405111     -0.613804     -0.762772
  N       4.618354     -1.120215     -1.410060
  O       4.506385     -1.656686     -2.491693
  O       5.674433     -0.977107     -0.831769
  C       3.509621      0.004857      0.481436
  C       2.357654      0.479259      1.089238
  H      -1.695930     -3.990563      1.789540
  H      -1.010200     -3.427244      0.241950
  H      -2.774310     -3.343837      0.522735
  H      -0.638692     -1.740724      2.062913
  H      -2.400225     -1.641238      2.339794
  H      -1.155952      3.148105     -0.240418
  H      -1.347323      2.726209     -1.955746
  H      -3.647029      2.998358      0.082896
  H      -3.844097      2.557713     -1.639016
  H      -3.244077      4.178608     -1.194194
  H       0.067818     -0.394368     -1.303782
  H       2.136244     -1.250502     -2.382515
  H       4.482772      0.107247      0.961784
  H       2.395616      0.967420      2.064573
32
Coordinates from ORCA-job opt E -1235.936471798464
  C      -1.780671     -3.233595      0.994379
  C      -1.621032     -1.856144      1.587173
  O      -1.744086     -0.892523      0.517268
  P      -1.542976      0.657036      0.793766
  O      -2.314694      1.292040      1.878827
  O      -1.742174      1.194257     -0.686253
  C      -1.798442      2.614140     -0.959358
  C      -3.224563      3.112471     -0.925072
  O       0.046206      0.836197      1.127542
  C       1.120637      0.334648      0.450840
  C       1.027204     -0.282175     -0.801288
  C       2.181387     -0.762806     -1.408709
  C       3.403449     -0.617416     -0.761344
  N       4.616070     -1.126590     -1.407764
  O       4.503844     -1.661548     -2.490101
  O       5.671787     -0.987348     -0.827891
  C       3.508260     -0.000687      0.483788
  C       2.356849      0.476302      1.090704
  H      -1.686423     -3.988893      1.787543
  H      -1.003876     -3.423448      0.239340
  H      -2.767789     -3.343443      0.522654
  H      -0.633066     -1.737147      2.060863
  H      -2.394296     -1.641492      2.340415
  H      -1.161433      3.151106     -0.238885
  H      -1.349469      2.729491     -1.954622
  H      -3.652664      2.996579      0.080821
  H      -3.846502      2.556625     -1.641676
  H      -3.249862      4.178253     -1.195057
  H       0.067583     -0.387067     -1.306697
  H       2.134707     -1.248103     -2.383650
  H       4.480986      0.098283      0.965691
  H       2.395049      0.962998      2.066758
32
Coordinates from ORCA-job opt E -1235.936471980221
  C      -1.773369     -3.231245      0.993347
  C      -1.615301     -1.853832      1.586601
  O      -1.741940     -0.889870      0.517537
  P      -1.542449      0.659934      0.793579
  O      -2.313823      1.294866      1.879014
  O      -1.743821      1.196439     -0.686525
  C      -1.802718      2.616282     -0.959382
  C      -3.229975      3.111400     -0.926541
  O       0.046745      0.840910      1.125912
  C       1.120606      0.336489      0.450240
  C       1.027078     -0.276969     -0.803472
  C       2.180558     -0.760723     -1.409802
  C       3.401936     -0.621451     -0.759793
  N       4.613839     -1.133637     -1.405225
  O       4.501428     -1.666565     -2.488537
  O       5.669112     -0.998925     -0.823487
  C       3.506851     -0.007941      0.486918
  C       2.356076      0.471980      1.092796
  H      -1.676687     -3.986757      1.786020
  H      -0.997206     -3.419391      0.237229
  H      -2.760958     -3.342600      0.522979
  H      -0.626772     -1.733214      2.058742
  H      -2.387661     -1.641013      2.341309
  H      -1.167781      3.154493     -0.238024
  H      -1.352836      2.732837     -1.954098
  H      -3.658842      2.994252      0.078886
  H      -3.849949      2.554638     -1.644121
  H      -3.257237      4.177262     -1.196079
  H       0.068014     -0.376796     -1.310983
  H       2.133774     -1.243510     -2.385979
  H       4.479001      0.086387      0.970898
  H       2.394307      0.956273      2.070040
32
Coordinates from ORCA-job opt E -1235.936475604756
  C      -1.769673     -3.229476      0.991852
  C      -1.613189     -1.852227      1.585926
  O      -1.741331     -0.887771      0.517572
  P      -1.541590      0.661953      0.793755
  O      -2.312395      1.297381      1.879449
  O      -1.743648      1.198611     -0.686279
  C      -1.805131      2.618538     -0.958171
  C      -3.233601      3.110316     -0.927649
  O       0.047600      0.842442      1.125624
  C       1.121119      0.336736      0.450355
  C       1.027193     -0.276263     -0.803534
  C       2.180201     -0.761472     -1.409586
  C       3.401536     -0.623990     -0.759080
  N       4.612959     -1.137666     -1.404189
  O       4.500117     -1.670868     -2.487324
  O       5.668307     -1.003892     -0.822364
  C       3.506860     -0.010890      0.487804
  C       2.356509      0.470398      1.093415
  H      -1.672141     -3.985392      1.784035
  H      -0.993178     -3.416232      0.235722
  H      -2.757103     -3.341704      0.521362
  H      -0.624652     -1.730777      2.057862
  H      -2.385579     -1.640847      2.341011
  H      -1.172955      3.157722     -0.235138
  H      -1.353651      2.736898     -1.951952
  H      -3.663974      2.991361      0.076928
  H      -3.850994      2.552934     -1.646962
  H      -3.262819      4.176396     -1.196170
  H       0.068118     -0.374642     -1.311332
  H       2.133125     -1.243977     -2.385886
  H       4.478965      0.082012      0.972146
  H       2.394995      0.954385      2.070799
