41
Coordinates from ORCA-job opt E -1527.697257454913
  C          -3.33264732684417      3.90465375463705      0.03819476663169
  C          -3.02993495631933      2.83641908408134     -0.98399953044729
  O          -2.57589766845822      1.66207908304389     -0.28765439886016
  P          -2.15571090458802      0.35499042902238     -1.11567993855370
  O          -3.03551663353502      0.00254418617943     -2.25793821975588
  N          -1.90316173690050     -0.69581706250083      0.11338756949691
  C          -1.48804650813192     -2.08482987447968     -0.10584088516043
  C          -2.68737861493429     -3.02954739792724     -0.10467035131254
  C          -0.42899382543862     -2.47357832918765      0.92055584466746
  O          -0.67443941977766      0.66599012637180     -1.74733022950537
  C           0.48100334973220      0.72230438979240     -1.00289814549115
  C           0.59849541501585      1.54490236772008      0.11472857835281
  C           1.79698577327121      1.53553740365542      0.82244069659698
  C           2.86996356047344      0.72980015796648      0.42819198556141
  S           4.37052909100973      0.78166937517827      1.39198774414785
  C           4.15861772598937     -0.68156143622887      2.44125130270310
  C           2.75951996249213     -0.08038447068062     -0.72177454971536
  C           3.88846720060290     -0.95589821088321     -1.19627567061731
  C           1.54823895495558     -0.07080166079235     -1.41961519817858
  H          -4.10390583285808      3.56076568365154      0.74283031955311
  H          -2.43003640246798      4.17005623220607      0.60798451606519
  H          -3.70258592730567      4.80837335968176     -0.46697768276198
  H          -2.24134556611065      3.16436050679638     -1.68116215361165
  H          -3.92111140856547      2.57492266513774     -1.57542511204465
  H          -2.31641260256087     -0.47060928155365      1.01408677198999
  H          -1.02337313944084     -2.11557765141683     -1.10672376559868
  H          -3.41826001689080     -2.71772470674778     -0.86520055211004
  H          -3.18520353761830     -3.01940251580962      0.87850018352754
  H          -2.37655107298548     -4.06257415655658     -0.32163232542077
  H           0.43918541600839     -1.79986729193825      0.86082153119666
  H          -0.08353933087689     -3.50414418090413      0.75118997171275
  H          -0.84227514547499     -2.41616032254050      1.94073492096699
  H          -0.23655666476655      2.17116904080622      0.43216372801904
  H           1.90378699500687      2.16545505917450      1.70907385857181
  H           5.03395821964561     -0.72055858905810      3.10446070088888
  H           4.12335547801315     -1.60318274905166      1.84407603226338
  H           3.24772136651596     -0.59515685290049      3.04918416767340
  H           3.66670210707538     -1.37938709343695     -2.18490036569573
  H           4.05858610473165     -1.79260217619072     -0.50053809023282
  H           4.82955713866470     -0.39049268577218     -1.25316528483367
  H           1.41821035364620     -0.69613418854486     -2.30644277067918
