41
Coordinates from ORCA-job opt E -1527.684773095934
  C      -2.313533      3.936014     -0.413105
  C      -2.460243      2.629250     -1.164395
  O      -2.378814      1.562033     -0.234744
  P      -2.224011      0.072894     -0.843220
  O      -3.242985     -0.180840     -1.914444
  N      -2.326620     -0.926462      0.451540
  C      -1.972259     -2.334168      0.308128
  C      -3.076840     -3.125519     -0.388535
  C      -1.708922     -2.904941      1.700899
  O      -0.716471      0.052034     -1.411405
  C       0.434794      0.330616     -0.731842
  C       0.498027      0.710641      0.602067
  C       1.737446      0.972851      1.192051
  C       2.925444      0.853179      0.457641
  S       4.469617      1.211781      1.288177
  C       4.662292     -0.344553      2.194603
  C       2.867988      0.478654     -0.896206
  C       4.102250      0.348499     -1.746246
  C       1.612975      0.218028     -1.474091
  H      -3.094813      4.033691      0.347887
  H      -1.352516      3.972972      0.110681
  H      -2.376688      4.788107     -1.095566
  H      -1.667298      2.537200     -1.913247
  H      -3.430418      2.590742     -1.669228
  H      -3.243057     -0.849425      0.878202
  H      -1.047440     -2.425375     -0.272443
  H      -3.227309     -2.780583     -1.415923
  H      -4.031299     -3.039218      0.142743
  H      -2.816940     -4.188689     -0.436819
  H      -0.903249     -2.357476      2.203160
  H      -1.404394     -3.955240      1.636711
  H      -2.601192     -2.852239      2.335182
  H      -0.393320      0.817137      1.211873
  H       1.765331      1.278729      2.235912
  H       5.602493     -0.321052      2.751930
  H       4.689527     -1.190386      1.502027
  H       3.842033     -0.483163      2.904127
  H       3.854276      0.048562     -2.770230
  H       4.770558     -0.415741     -1.336739
  H       4.628635      1.306417     -1.806680
  H       1.546948     -0.074962     -2.520434
41
Coordinates from ORCA-job opt E -1527.690958943266
  C      -2.382049      3.977483     -0.402464
  C      -2.534048      2.693634     -1.188473
  O      -2.439913      1.591790     -0.281694
  P      -2.275998      0.113557     -0.908029
  O      -3.238611     -0.153066     -2.019281
  N      -2.354965     -0.871001      0.408952
  C      -1.910287     -2.273736      0.318174
  C      -2.942527     -3.166006     -0.372610
  C      -1.589164     -2.778397      1.723914
  O      -0.751410      0.068977     -1.438863
  C       0.402935      0.325807     -0.738334
  C       0.443949      0.692552      0.603657
  C       1.679126      0.932499      1.203108
  C       2.872547      0.800954      0.484941
  S       4.416508      1.121470      1.327185
  C       4.644608     -0.472918      2.158614
  C       2.833468      0.437436     -0.873418
  C       4.086038      0.288055     -1.697433
  C       1.587607      0.203609     -1.466189
  H      -3.163721      4.056443      0.367988
  H      -1.407453      4.006232      0.108228
  H      -2.456046      4.847404     -1.069472
  H      -1.742002      2.619369     -1.952115
  H      -3.510384      2.660811     -1.696960
  H      -3.270395     -0.799456      0.857817
  H      -0.976495     -2.298175     -0.266648
  H      -3.121709     -2.842826     -1.408174
  H      -3.904592     -3.144521      0.164031
  H      -2.595101     -4.209859     -0.401840
  H      -0.825100     -2.147652      2.203129
  H      -1.204252     -3.808491      1.688664
  H      -2.487494     -2.773229      2.361623
  H      -0.462394      0.802194      1.199561
  H       1.703894      1.229084      2.254380
  H       5.593741     -0.441375      2.711492
  H       4.690756     -1.289063      1.424241
  H       3.828620     -0.662442      2.869889
  H       3.848597     -0.003132     -2.729792
  H       4.741518     -0.486902     -1.272781
  H       4.642678      1.235685     -1.736171
  H       1.529521     -0.082802     -2.518847
41
Coordinates from ORCA-job opt E -1527.693922534305
  C      -2.428379      3.973180     -0.303820
  C      -2.591358      2.737655     -1.156272
  O      -2.488788      1.582720     -0.302754
  P      -2.319878      0.131975     -0.975838
  O      -3.205276     -0.116782     -2.142680
  N      -2.388193     -0.851125      0.351976
  C      -1.874461     -2.236135      0.293273
  C      -2.850782     -3.186527     -0.396238
  C      -1.507038     -2.688430      1.701495
  O      -0.774171      0.054780     -1.460004
  C       0.378801      0.324716     -0.751043
  C       0.394933      0.765320      0.571778
  C       1.628446      0.999790      1.173089
  C       2.828418      0.796956      0.488358
  S       4.370258      1.118166      1.328788
  C       4.650598     -0.485255      2.127587
  C       2.808300      0.359826     -0.851624
  C       4.075839      0.126583     -1.633228
  C       1.569221      0.132457     -1.450535
  H      -3.209680      4.019832      0.470978
  H      -1.444924      3.976675      0.192199
  H      -2.506035      4.873442     -0.931767
  H      -1.805102      2.691915     -1.930786
  H      -3.569417      2.722243     -1.665500
  H      -3.288102     -0.775625      0.830846
  H      -0.945607     -2.194602     -0.302772
  H      -3.064539     -2.857864     -1.425371
  H      -3.805012     -3.225252      0.157168
  H      -2.436545     -4.206086     -0.436936
  H      -0.782127     -1.996850      2.157888
  H      -1.062081     -3.695263      1.680965
  H      -2.404113     -2.723522      2.343414
  H      -0.525425      0.926593      1.133413
  H       1.652478      1.351576      2.208638
  H       5.601374     -0.411978      2.676196
  H       4.730782     -1.287009      1.378510
  H       3.843573     -0.716061      2.838822
  H       3.847175     -0.213808     -2.653066
  H       4.705477     -0.635141     -1.146463
  H       4.675094      1.047711     -1.701272
  H       1.516268     -0.210796     -2.487413
41
Coordinates from ORCA-job opt E -1527.694497680596
  C      -2.501826      3.968834     -0.304090
  C      -2.641372      2.741956     -1.171486
  O      -2.503296      1.578706     -0.331900
  P      -2.303380      0.137762     -1.010333
  O      -3.150540     -0.115864     -2.200918
  N      -2.368623     -0.839287      0.324270
  C      -1.880597     -2.232796      0.274489
  C      -2.896094     -3.177027     -0.363682
  C      -1.471799     -2.663959      1.676723
  O      -0.746630      0.068179     -1.472839
  C       0.396339      0.338239     -0.751343
  C       0.393991      0.784985      0.569405
  C       1.621987      1.011161      1.187016
  C       2.830724      0.795570      0.522388
  S       4.361468      1.112033      1.383414
  C       4.695192     -0.524501      2.089424
  C       2.827805      0.350655     -0.816960
  C       4.103667      0.103178     -1.578567
  C       1.594929      0.129616     -1.432249
  H      -3.279311      3.988886      0.474242
  H      -1.514819      3.991023      0.181993
  H      -2.605583      4.873221     -0.921591
  H      -1.861300      2.720209     -1.951482
  H      -3.621348      2.704024     -1.673482
  H      -3.240530     -0.728162      0.843898
  H      -0.974537     -2.214542     -0.354795
  H      -3.150892     -2.849876     -1.382863
  H      -3.824351     -3.199878      0.231725
  H      -2.495983     -4.201121     -0.415790
  H      -0.716870     -1.978391      2.089372
  H      -1.051159     -3.680629      1.660974
  H      -2.345052     -2.664972      2.350446
  H      -0.535903      0.953644      1.111307
  H       1.637405      1.365161      2.221499
  H       5.638103     -0.440936      2.648528
  H       4.813643     -1.278315      1.297920
  H       3.893421     -0.825357      2.778495
  H       3.885833     -0.236145     -2.600439
  H       4.719870     -0.661298     -1.080573
  H       4.715914      1.015837     -1.635167
  H       1.551503     -0.219823     -2.466978
41
Coordinates from ORCA-job opt E -1527.694930416147
  C      -2.575225      3.946881     -0.247196
  C      -2.684867      2.738916     -1.144158
  O      -2.494875      1.561077     -0.335238
  P      -2.267352      0.138907     -1.035750
  O      -3.082571     -0.099523     -2.249820
  N      -2.332274     -0.850125      0.288782
  C      -1.915188     -2.261592      0.216328
  C      -3.015698     -3.157919     -0.345945
  C      -1.439595     -2.706905      1.592964
  O      -0.702267      0.077524     -1.488651
  C       0.433264      0.355291     -0.765941
  C       0.424681      0.869156      0.529762
  C       1.650907      1.097688      1.152504
  C       2.863369      0.821448      0.517538
  S       4.386551      1.159813      1.382964
  C       4.732931     -0.461285      2.118812
  C       2.867008      0.312586     -0.800289
  C       4.143799      0.011198     -1.538302
  C       1.636072      0.087194     -1.420171
  H      -3.341080      3.920204      0.541007
  H      -1.582153      3.992771      0.222430
  H      -2.720535      4.861485     -0.839959
  H      -1.917462      2.759569     -1.934522
  H      -3.669925      2.675435     -1.630917
  H      -3.148484     -0.684737      0.876997
  H      -1.053241     -2.288911     -0.470829
  H      -3.333239     -2.807382     -1.338500
  H      -3.894802     -3.148847      0.318875
  H      -2.664979     -4.196649     -0.437336
  H      -0.623918     -2.060422      1.947457
  H      -1.077766     -3.744938      1.559161
  H      -2.264868     -2.656552      2.321607
  H      -0.510081      1.085477      1.044093
  H       1.665456      1.500081      2.168574
  H       5.664365     -0.349073      2.690499
  H       4.878428     -1.227796      1.345384
  H       3.924885     -0.761701      2.798929
  H       3.929665     -0.355854     -2.550565
  H       4.737833     -0.749426     -1.009819
  H       4.778479      0.906500     -1.613519
  H       1.594751     -0.309566     -2.437240
41
Coordinates from ORCA-job opt E -1527.695277848346
  C      -2.733999      3.948754     -0.264443
  C      -2.781763      2.739489     -1.165274
  O      -2.503393      1.574382     -0.365092
  P      -2.225291      0.162451     -1.062296
  O      -3.021630     -0.099237     -2.284712
  N      -2.264368     -0.820163      0.262825
  C      -1.900216     -2.240877      0.180718
  C      -3.072259     -3.106319     -0.276791
  C      -1.335611     -2.685331      1.524751
  O      -0.656050      0.134706     -1.517982
  C       0.471672      0.382878     -0.780529
  C       0.458693      0.893541      0.516104
  C       1.680665      1.090147      1.158855
  C       2.896170      0.790329      0.539609
  S       4.410328      1.096506      1.432078
  C       4.728866     -0.537382      2.152374
  C       2.906318      0.288560     -0.781039
  C       4.184604     -0.027973     -1.508990
  C       1.678982      0.088616     -1.417851
  H      -3.477718      3.865628      0.540150
  H      -1.736295      4.060505      0.182667
  H      -2.955056      4.853651     -0.847887
  H      -2.033438      2.811097     -1.969454
  H      -3.770338      2.613522     -1.630754
  H      -3.014101     -0.610451      0.918817
  H      -1.096479     -2.309636     -0.570848
  H      -3.462148     -2.748280     -1.240096
  H      -3.890340     -3.069523      0.460092
  H      -2.763128     -4.155337     -0.392624
  H      -0.466550     -2.070795      1.799654
  H      -1.023875     -3.738912      1.484216
  H      -2.095460     -2.585307      2.315822
  H      -0.479306      1.131524      1.014664
  H       1.692091      1.486419      2.176943
  H       5.648949     -0.438996      2.743767
  H       4.884563     -1.297552      1.375427
  H       3.904521     -0.837925      2.811733
  H       3.977124     -0.366631     -2.532068
  H       4.752873     -0.815779     -0.992705
  H       4.840594      0.853468     -1.553367
  H       1.641796     -0.303767     -2.436464
41
Coordinates from ORCA-job opt E -1527.695519202266
  C      -2.819228      3.937497     -0.232419
  C      -2.820795      2.736354     -1.146133
  O      -2.490651      1.576076     -0.360671
  P      -2.194079      0.173470     -1.067827
  O      -2.996356     -0.093887     -2.287208
  N      -2.213785     -0.818622      0.244364
  C      -1.900833     -2.247661      0.134948
  C      -3.130508     -3.070249     -0.245028
  C      -1.264709     -2.720862      1.437806
  O      -0.628317      0.172773     -1.541319
  C       0.498032      0.409341     -0.801221
  C       0.489690      0.965370      0.476929
  C       1.709194      1.153746      1.125572
  C       2.922450      0.804837      0.526849
  S       4.434594      1.102266      1.425506
  C       4.705664     -0.516385      2.196827
  C       2.930750      0.259885     -0.775331
  C       4.207311     -0.112714     -1.480133
  C       1.704845      0.066117     -1.416226
  H      -3.550214      3.809488      0.578521
  H      -1.823753      4.089261      0.208749
  H      -3.087570      4.838236     -0.802426
  H      -2.081151      2.849933     -1.953875
  H      -3.807553      2.576355     -1.605795
  H      -2.906714     -0.582532      0.951468
  H      -1.151594     -2.343596     -0.668836
  H      -3.570820     -2.692244     -1.178983
  H      -3.895763     -3.010932      0.545223
  H      -2.867183     -4.128843     -0.386333
  H      -0.352538     -2.145911      1.654322
  H      -1.001615     -3.786919      1.377367
  H      -1.963615     -2.590152      2.279266
  H      -0.445736      1.248799      0.957650
  H       1.721429      1.585492      2.129247
  H       5.621416     -0.425406      2.796573
  H       4.850149     -1.303833      1.444830
  H       3.866182     -0.776636      2.854992
  H       4.003425     -0.465039     -2.499598
  H       4.742180     -0.910432     -0.942756
  H       4.890189      0.747647     -1.533518
  H       1.667579     -0.360085     -2.421371
41
Coordinates from ORCA-job opt E -1527.695776883685
  C      -2.886291      3.943100     -0.218077
  C      -2.833065      2.747426     -1.138457
  O      -2.500720      1.590110     -0.351761
  P      -2.191542      0.189309     -1.060218
  O      -3.010758     -0.098753     -2.266080
  N      -2.186780     -0.808283      0.242079
  C      -1.866135     -2.234684      0.116398
  C      -3.101005     -3.062567     -0.235602
  C      -1.189733     -2.713534      1.397189
  O      -0.634305      0.224721     -1.557426
  C       0.494596      0.440772     -0.813323
  C       0.495437      1.026404      0.452252
  C       1.713408      1.197498      1.106213
  C       2.920825      0.804843      0.521912
  S       4.435724      1.080870      1.423075
  C       4.668602     -0.538504      2.203844
  C       2.922307      0.231629     -0.766407
  C       4.194729     -0.190470     -1.452567
  C       1.696631      0.053205     -1.410513
  H      -3.638350      3.791220      0.570287
  H      -1.909020      4.113151      0.257575
  H      -3.157729      4.842125     -0.789761
  H      -2.070796      2.886312     -1.922207
  H      -3.803006      2.572928     -1.629358
  H      -2.857564     -0.575166      0.971652
  H      -1.138302     -2.324062     -0.708556
  H      -3.562083     -2.687819     -1.161530
  H      -3.849369     -3.004297      0.571442
  H      -2.837728     -4.121096     -0.381134
  H      -0.275734     -2.134263      1.596966
  H      -0.919105     -3.777103      1.321346
  H      -1.867720     -2.596093      2.258292
  H      -0.432773      1.353305      0.921027
  H       1.728383      1.654735      2.098828
  H       5.584605     -0.470725      2.807309
  H       4.795401     -1.331948      1.453964
  H       3.820731     -0.777391      2.860719
  H       3.991683     -0.547811     -2.471069
  H       4.695527     -1.001972     -0.901858
  H       4.904109      0.648142     -1.510139
  H       1.656911     -0.395265     -2.406327
41
Coordinates from ORCA-job opt E -1527.696122505757
  C      -3.016200      3.941802     -0.160561
  C      -2.880731      2.771419     -1.105229
  O      -2.524158      1.611114     -0.334950
  P      -2.186815      0.226020     -1.063222
  O      -3.021561     -0.090086     -2.252667
  N      -2.123925     -0.784285      0.221398
  C      -1.789373     -2.204956      0.062857
  C      -3.032983     -3.048488     -0.212944
  C      -1.012342     -2.684008      1.284438
  O      -0.644832      0.330863     -1.597824
  C       0.490458      0.511390     -0.850542
  C       0.515029      1.169484      0.379402
  C       1.731512      1.299280      1.043259
  C       2.917823      0.795696      0.501745
  S       4.437395      1.028091      1.407698
  C       4.573797     -0.566965      2.257403
  C       2.898244      0.152109     -0.752224
  C       4.151473     -0.383371     -1.395223
  C       1.671885      0.013716     -1.403472
  H      -3.787678      3.738394      0.597747
  H      -2.064526      4.140891      0.355098
  H      -3.306480      4.842000     -0.721428
  H      -2.096995      2.963157     -1.857433
  H      -3.825317      2.571239     -1.635418
  H      -2.733281     -0.553040      1.003407
  H      -1.120908     -2.274922     -0.813502
  H      -3.555534     -2.675197     -1.106561
  H      -3.728310     -3.001382      0.641561
  H      -2.766671     -4.103474     -0.379951
  H      -0.097847     -2.088817      1.429573
  H      -0.725762     -3.740795      1.175497
  H      -1.631090     -2.592124      2.192729
  H      -0.393116      1.590556      0.812700
  H       1.761620      1.812605      2.007929
  H       5.485132     -0.527885      2.871171
  H       4.664634     -1.395640      1.540608
  H       3.706446     -0.733737      2.911965
  H       3.943474     -0.759216     -2.406524
  H       4.579758     -1.212624     -0.810194
  H       4.920357      0.400093     -1.465461
  H       1.617397     -0.488909     -2.372852
41
Coordinates from ORCA-job opt E -1527.696683612419
  C      -3.274056      3.926363     -0.072018
  C      -2.974726      2.818552     -1.053976
  O      -2.575646      1.654143     -0.312328
  P      -2.172729      0.305053     -1.077241
  O      -3.016911     -0.069317     -2.243321
  N      -1.997531     -0.719183      0.177942
  C      -1.621057     -2.123416     -0.034922
  C      -2.851354     -3.021562     -0.144404
  C      -0.646467     -2.567144      1.049083
  O      -0.664680      0.546926     -1.665471
  C       0.481809      0.646898     -0.914390
  C       0.566521      1.410168      0.250350
  C       1.776600      1.453366      0.934591
  C       2.899618      0.757846      0.475935
  S       4.421752      0.885828      1.398557
  C       4.378377     -0.658520      2.345668
  C       2.821769      0.005131     -0.713632
  C       4.008774     -0.744859     -1.262436
  C       1.598836     -0.042831     -1.383692
  H      -4.079399      3.625582      0.616058
  H      -2.382885      4.174520      0.524623
  H      -3.595884      4.826714     -0.615455
  H      -2.154919      3.109250     -1.734087
  H      -3.857892      2.573223     -1.665665
  H      -2.482033     -0.491320      1.042887
  H      -1.086447     -2.153835     -1.001855
  H      -3.504439     -2.667490     -0.956261
  H      -3.423050     -3.004339      0.798877
  H      -2.565122     -4.063673     -0.355108
  H       0.245602     -1.922455      1.072073
  H      -0.320478     -3.604574      0.879613
  H      -1.130412     -2.521721      2.039760
  H      -0.289566      1.978909      0.618865
  H       1.849818      2.045578      1.850705
  H       5.279201     -0.680581      2.976151
  H       4.391289     -1.533726      1.679986
  H       3.488887     -0.695375      2.991143
  H       3.786855     -1.150733     -2.259501
  H       4.285479     -1.591160     -0.613493
  H       4.887062     -0.087569     -1.341694
  H       1.499432     -0.628667     -2.301916
41
Coordinates from ORCA-job opt E -1527.696795743660
  C      -3.409072      3.902818      0.019741
  C      -3.004110      2.855958     -0.990254
  O      -2.595312      1.675150     -0.279858
  P      -2.164527      0.358396     -1.087161
  O      -3.026057     -0.041427     -2.230196
  N      -1.900221     -0.679668      0.141102
  C      -1.482062     -2.065520     -0.116575
  C      -2.671737     -3.021110     -0.088410
  C      -0.366049     -2.458132      0.841829
  O      -0.691183      0.693767     -1.719447
  C       0.469417      0.732076     -0.980069
  C       0.615311      1.561572      0.130305
  C       1.819129      1.536799      0.826450
  C       2.872326      0.705285      0.432849
  S       4.392393      0.750704      1.366379
  C       4.168764     -0.673095      2.465025
  C       2.733043     -0.115867     -0.706367
  C       3.845865     -1.010868     -1.187251
  C       1.515850     -0.090028     -1.390030
  H      -4.241628      3.540214      0.641724
  H      -2.567436      4.159326      0.680732
  H      -3.734610      4.813541     -0.503657
  H      -2.158456      3.209224     -1.605737
  H      -3.836254      2.602450     -1.666466
  H      -2.290079     -0.459852      1.053838
  H      -1.063991     -2.067837     -1.139623
  H      -3.426193     -2.702650     -0.822886
  H      -3.134860     -3.024232      0.912603
  H      -2.360471     -4.049230     -0.328903
  H       0.487255     -1.766763      0.764190
  H      -0.009112     -3.476557      0.626281
  H      -0.731741     -2.439749      1.882663
  H      -0.193101      2.220116      0.454864
  H       1.938727      2.175877      1.705281
  H       5.057958     -0.729484      3.109241
  H       4.086609     -1.608177      1.892923
  H       3.277741     -0.543421      3.095722
  H       3.607848     -1.430228     -2.174823
  H       4.008447     -1.855095     -0.498560
  H       4.794289     -0.459134     -1.259727
  H       1.367290     -0.725151     -2.267742
41
Coordinates from ORCA-job opt E -1527.697094917003
  C      -3.285775      3.914183      0.011523
  C      -2.950243      2.842092     -0.996469
  O      -2.566146      1.653369     -0.283300
  P      -2.174434      0.325515     -1.090918
  O      -3.054229     -0.039930     -2.229060
  N      -1.935441     -0.715042      0.149919
  C      -1.539457     -2.111157     -0.084388
  C      -2.750108     -3.039957     -0.098100
  C      -0.481183     -2.524557      0.930507
  O      -0.691260      0.612618     -1.725385
  C       0.467187      0.691590     -0.987609
  C       0.566836      1.490852      0.148201
  C       1.771129      1.502299      0.846671
  C       2.865358      0.738727      0.429335
  S       4.374865      0.821166      1.376743
  C       4.197550     -0.633920      2.443168
  C       2.770333     -0.050494     -0.737743
  C       3.922803     -0.878076     -1.241092
  C       1.554409     -0.060667     -1.426300
  H      -4.113477      3.593318      0.660772
  H      -2.414990      4.146456      0.641960
  H      -3.590531      4.830968     -0.513326
  H      -2.112514      3.152728     -1.642751
  H      -3.810320      2.608096     -1.643072
  H      -2.359660     -0.491890      1.046285
  H      -1.076923     -2.130498     -1.086771
  H      -3.469950     -2.711721     -0.861817
  H      -3.252867     -3.028845      0.882744
  H      -2.450610     -4.075046     -0.320628
  H       0.390447     -1.854823      0.884115
  H      -0.141905     -3.553505      0.739272
  H      -0.892642     -2.486514      1.952662
  H      -0.280444      2.085308      0.493366
  H       1.859489      2.114714      1.747559
  H       5.084160     -0.662356      3.091760
  H       4.159424     -1.560113      1.853238
  H       3.297578     -0.551884      3.067838
  H       3.700479     -1.290653     -2.234473
  H       4.133014     -1.721802     -0.565440
  H       4.842650     -0.279315     -1.303747
  H       1.437400     -0.671234     -2.325248
41
Coordinates from ORCA-job opt E -1527.697209962199
  C      -3.364577      3.895835     -0.001467
  C      -2.990112      2.837476     -1.010034
  O      -2.575969      1.658207     -0.298010
  P      -2.150727      0.341710     -1.105610
  O      -3.011365     -0.024599     -2.258005
  N      -1.918446     -0.699519      0.135339
  C      -1.543195     -2.099451     -0.090587
  C      -2.767014     -3.011680     -0.071285
  C      -0.479378     -2.517830      0.918745
  O      -0.660777      0.643935     -1.723103
  C       0.490929      0.710899     -0.976056
  C       0.596615      1.517477      0.154418
  C       1.797878      1.519309      0.858706
  C       2.886443      0.744243      0.447451
  S       4.390339      0.812853      1.404292
  C       4.228696     -0.686228      2.410364
  C       2.788047     -0.048701     -0.715799
  C       3.932431     -0.892677     -1.209194
  C       1.573891     -0.053000     -1.408242
  H      -4.184574      3.546911      0.642927
  H      -2.504330      4.154880      0.632981
  H      -3.696346      4.803940     -0.524876
  H      -2.159180      3.174225     -1.651388
  H      -3.840017      2.577754     -1.660115
  H      -2.321545     -0.463901      1.037628
  H      -1.094728     -2.140826     -1.098509
  H      -3.497241     -2.681623     -0.824570
  H      -3.252045     -2.984972      0.917777
  H      -2.486442     -4.053128     -0.288733
  H       0.404521     -1.866014      0.848206
  H      -0.162908     -3.556392      0.741468
  H      -0.875379     -2.453325      1.945242
  H      -0.245355      2.125469      0.487188
  H       1.893252      2.138348      1.754283
  H       5.109482     -0.720930      3.066501
  H       4.215067     -1.589898      1.785311
  H       3.320461     -0.644688      3.026976
  H       3.713651     -1.305280     -2.203145
  H       4.125415     -1.736859     -0.528494
  H       4.860540     -0.306188     -1.263410
  H       1.453992     -0.665762     -2.305171
41
Coordinates from ORCA-job opt E -1527.697229641130
  C      -3.366854      3.895909      0.014951
  C      -2.989971      2.842617     -0.997831
  O      -2.575406      1.660387     -0.290582
  P      -2.151759      0.348110     -1.106948
  O      -3.022010     -0.017109     -2.252162
  N      -1.906159     -0.698012      0.127888
  C      -1.522570     -2.094841     -0.102188
  C      -2.739042     -3.016694     -0.070169
  C      -0.444825     -2.505134      0.896015
  O      -0.667742      0.659313     -1.734066
  C       0.486061      0.719935     -0.989030
  C       0.597614      1.534542      0.134811
  C       1.797628      1.530370      0.840908
  C       2.877640      0.738282      0.439369
  S       4.380673      0.800226      1.398385
  C       4.197263     -0.680522      2.428021
  C       2.772509     -0.064908     -0.716392
  C       3.908343     -0.926194     -1.199710
  C       1.559850     -0.061522     -1.411835
  H      -4.186906      3.543591      0.657366
  H      -2.507340      4.153757      0.650887
  H      -3.699325      4.805979     -0.504585
  H      -2.158464      3.182624     -1.636808
  H      -3.838622      2.584576     -1.650180
  H      -2.301124     -0.465680      1.034665
  H      -1.084526     -2.132954     -1.114619
  H      -3.480571     -2.693330     -0.815344
  H      -3.213838     -2.993863      0.923968
  H      -2.452353     -4.055907     -0.290535
  H       0.433082     -1.846313      0.815413
  H      -0.122308     -3.541117      0.714966
  H      -0.830077     -2.443536      1.926753
  H      -0.240598      2.152251      0.460359
  H       1.898465      2.155495      1.731617
  H       5.076937     -0.715652      3.085614
  H       4.172481     -1.594041      1.818066
  H       3.288954     -0.616759      3.042543
  H       3.688775     -1.342853     -2.191688
  H       4.087325     -1.767533     -0.511904
  H       4.844408     -0.352156     -1.252870
  H       1.434385     -0.681331     -2.303119
41
Coordinates from ORCA-job opt E -1527.697245586295
  C      -3.363739      3.898175      0.021977
  C      -2.994178      2.844197     -0.992705
  O      -2.576233      1.661939     -0.287015
  P      -2.153263      0.351686     -1.107908
  O      -3.028965     -0.010643     -2.249889
  N      -1.903651     -0.697598      0.123545
  C      -1.511552     -2.092083     -0.104375
  C      -2.723048     -3.020837     -0.078698
  C      -0.436742     -2.496498      0.899720
  O      -0.671237      0.664670     -1.738338
  C       0.483502      0.721314     -0.993661
  C       0.598127      1.537711      0.128643
  C       1.797985      1.530871      0.834489
  C       2.874571      0.733154      0.434470
  S       4.378389      0.792803      1.392722
  C       4.186419     -0.677831      2.435585
  C       2.766195     -0.072241     -0.719304
  C       3.899128     -0.938582     -1.200911
  C       1.553787     -0.065457     -1.415151
  H      -4.178902      3.546380      0.670914
  H      -2.499500      4.156833      0.651252
  H      -3.700218      4.808077     -0.495332
  H      -2.166402      3.183165     -1.637174
  H      -3.847177      2.586347     -1.639473
  H      -2.302366     -0.468071      1.029569
  H      -1.067909     -2.128597     -1.114386
  H      -3.463724     -2.702047     -0.826773
  H      -3.202658     -3.001458      0.913304
  H      -2.429451     -4.058355     -0.298276
  H       0.438070     -1.833124      0.823024
  H      -0.107907     -3.530818      0.720586
  H      -0.827668     -2.436427      1.928445
  H      -0.239158      2.158221      0.451804
  H       1.901999      2.156738      1.724303
  H       5.066172     -0.711304      3.093212
  H       4.156590     -1.596977      1.834451
  H       3.278497     -0.603185      3.049455
  H       3.678937     -1.356354     -2.192241
  H       4.074143     -1.778938     -0.510884
  H       4.837526     -0.368195     -1.253877
  H       1.425612     -0.686658     -2.305099
41
Coordinates from ORCA-job opt E -1527.697251503657
  C      -3.356936      3.899881      0.025729
  C      -3.000949      2.842823     -0.990591
  O      -2.575602      1.662176     -0.286207
  P      -2.153704      0.352943     -1.109722
  O      -3.032188     -0.006102     -2.250746
  N      -1.902868     -0.697450      0.120304
  C      -1.505920     -2.090929     -0.103773
  C      -2.715121     -3.022887     -0.085647
  C      -0.436835     -2.491689      0.907860
  O      -0.672114      0.664829     -1.741145
  C       0.482965      0.720948     -0.996396
  C       0.597940      1.537421      0.125969
  C       1.797313      1.529704      0.832190
  C       2.873488      0.731272      0.432027
  S       4.376797      0.789471      1.391304
  C       4.180584     -0.677860      2.438078
  C       2.764916     -0.073819     -0.721777
  C       3.897494     -0.941152     -1.202884
  C       1.552796     -0.066258     -1.417988
  H      -4.163171      3.549775      0.686707
  H      -2.484385      4.160633      0.642641
  H      -3.700672      4.808365     -0.489390
  H      -2.180761      3.179384     -1.645986
  H      -3.862037      2.583955     -1.626188
  H      -2.305652     -0.468518      1.024802
  H      -1.055260     -2.127536     -1.110785
  H      -3.452660     -2.705952     -0.837654
  H      -3.200572     -3.005306      0.903642
  H      -2.417677     -4.059611     -0.303978
  H       0.437030     -1.826490      0.836141
  H      -0.104503     -3.525515      0.732235
  H      -0.835032     -2.431156      1.933824
  H      -0.239796      2.158077      0.447815
  H       1.902209      2.155029      1.722297
  H       5.059713     -0.710828      3.096633
  H       4.149601     -1.598852      1.839769
  H       3.272068     -0.599452      3.050664
  H       3.677588     -1.359083     -2.194231
  H       4.071471     -1.781359     -0.512316
  H       4.836286     -0.371379     -1.255354
  H       1.424155     -0.687503     -2.307872
41
Coordinates from ORCA-job opt E -1527.697256026618
  C      -3.349777      3.901918      0.028940
  C      -3.013777      2.840145     -0.989323
  O      -2.575402      1.662839     -0.287016
  P      -2.153888      0.354842     -1.113063
  O      -3.034161     -0.000914     -2.253967
  N      -1.901597     -0.695779      0.116024
  C      -1.497451     -2.087759     -0.102925
  C      -2.702796     -3.024791     -0.092654
  C      -0.434307     -2.482252      0.917236
  O      -0.672564      0.666007     -1.744793
  C       0.482378      0.722278     -0.999342
  C       0.597241      1.540522      0.121899
  C       1.795328      1.531874      0.829882
  C       2.870887      0.731261      0.431881
  S       4.372137      0.786273      1.394542
  C       4.174011     -0.685796      2.434189
  C       2.762776     -0.074948     -0.720926
  C       3.894585     -0.945528     -1.198210
  C       1.551667     -0.066640     -1.418805
  H      -4.141338      3.553583      0.708422
  H      -2.465012      4.166862      0.626429
  H      -3.705863      4.807552     -0.482868
  H      -2.206225      3.173807     -1.661693
  H      -3.886887      2.578606     -1.607198
  H      -2.308791     -0.466997      1.018689
  H      -1.038956     -2.124230     -1.106549
  H      -3.436991     -2.710845     -0.849204
  H      -3.194679     -3.009391      0.893565
  H      -2.399846     -4.060322     -0.309144
  H       0.437671     -1.813999      0.850654
  H      -0.096780     -3.515239      0.746487
  H      -0.840699     -2.420911      1.939999
  H      -0.240666      2.162531      0.440662
  H       1.900631      2.157816      1.719521
  H       5.051585     -0.721113      3.094743
  H       4.144971     -1.604186      1.831571
  H       3.263813     -0.610473      3.044729
  H       3.675668     -1.365347     -2.189014
  H       4.065672     -1.784504     -0.505288
  H       4.834423     -0.377495     -1.250323
  H       1.423011     -0.689255     -2.307763
41
Coordinates from ORCA-job opt E -1527.697258166509
  C      -3.344472      3.902638      0.033605
  C      -3.021096      2.838671     -0.986552
  O      -2.575345      1.662755     -0.286722
  P      -2.154371      0.355515     -1.114316
  O      -3.034724      0.001599     -2.255822
  N      -1.901673     -0.695477      0.114157
  C      -1.492963     -2.086281     -0.104258
  C      -2.695801     -3.026467     -0.098789
  C      -0.432103     -2.478205      0.919093
  O      -0.673204      0.666798     -1.746089
  C       0.482092      0.722355     -1.000991
  C       0.598896      1.542803      0.118464
  C       1.797146      1.533274      0.826156
  C       2.871041      0.729614      0.429708
  S       4.372358      0.783194      1.392302
  C       4.167806     -0.683267      2.438530
  C       2.761253     -0.078365     -0.721718
  C       3.891441     -0.951552     -1.197990
  C       1.549963     -0.068969     -1.419344
  H      -4.127401      3.555242      0.723508
  H      -2.452571      4.168701      0.619833
  H      -3.707202      4.807186     -0.475406
  H      -2.221253      3.170802     -1.668796
  H      -3.901368      2.576567     -1.593885
  H      -2.310954     -0.467678      1.016099
  H      -1.031099     -2.120590     -1.106441
  H      -3.428211     -2.713131     -0.857275
  H      -3.190713     -3.013518      0.885921
  H      -2.389580     -4.060931     -0.315648
  H       0.438279     -1.807599      0.855959
  H      -0.091077     -3.510173      0.749146
  H      -0.842192     -2.418522      1.940484
  H      -0.237442      2.167376      0.436050
  H       1.903939      2.161070      1.714305
  H       5.044685     -0.719408      3.099928
  H       4.135413     -1.604131      1.839943
  H       3.257538     -0.601632      3.048139
  H       3.671299     -1.372366     -2.188119
  H       4.061419     -1.790007     -0.504230
  H       4.832111     -0.385097     -1.251651
  H       1.420136     -0.692794     -2.307287
41
Coordinates from ORCA-job opt E -1527.697261745371
  C      -3.335048      3.904155      0.037321
  C      -3.027792      2.836751     -0.984350
  O      -2.575169      1.662230     -0.287118
  P      -2.155348      0.355005     -1.115219
  O      -3.035401      0.002672     -2.257402
  N      -1.903070     -0.695893      0.113623
  C      -1.489552     -2.085432     -0.105001
  C      -2.689884     -3.028808     -0.104381
  C      -0.431248     -2.475152      0.921740
  O      -0.674069      0.665606     -1.746917
  C       0.481469      0.721721     -1.002459
  C       0.598909      1.543384      0.115936
  C       1.797530      1.534011      0.823280
  C       2.870831      0.729134      0.427927
  S       4.371812      0.781601      1.391039
  C       4.160919     -0.680597      2.441905
  C       2.760444     -0.080024     -0.722734
  C       3.889863     -0.954281     -1.198555
  C       1.548971     -0.070410     -1.420220
  H      -4.108604      3.559426      0.739023
  H      -2.434724      4.170083      0.610491
  H      -3.703775      4.807845     -0.468808
  H      -2.236803      3.165664     -1.678330
  H      -3.916613      2.574877     -1.579132
  H      -2.315697     -0.469813      1.014414
  H      -1.024395     -2.116976     -1.105680
  H      -3.420193     -2.716170     -0.865121
  H      -3.188067     -3.018171      0.878625
  H      -2.380174     -4.062180     -0.321306
  H       0.437580     -1.802257      0.862347
  H      -0.086756     -3.506052      0.752447
  H      -0.844979     -2.417361      1.941733
  H      -0.236512      2.168972      0.433717
  H       1.904527      2.163124      1.710459
  H       5.036723     -0.718395      3.104578
  H       4.125663     -1.602974      1.845925
  H       3.250346     -0.593816      3.050279
  H       3.668396     -1.376314     -2.187874
  H       4.060316     -1.792013     -0.504138
  H       4.830637     -0.388261     -1.254425
  H       1.418936     -0.694912     -2.307642
41
Coordinates from ORCA-job opt E -1527.697257454913
  C      -3.332647      3.904654      0.038195
  C      -3.029935      2.836419     -0.984000
  O      -2.575898      1.662079     -0.287654
  P      -2.155711      0.354990     -1.115680
  O      -3.035517      0.002544     -2.257938
  N      -1.903162     -0.695817      0.113388
  C      -1.488047     -2.084830     -0.105841
  C      -2.687379     -3.029547     -0.104670
  C      -0.428994     -2.473578      0.920556
  O      -0.674439      0.665990     -1.747330
  C       0.481003      0.722304     -1.002898
  C       0.598495      1.544902      0.114729
  C       1.796986      1.535537      0.822441
  C       2.869964      0.729800      0.428192
  S       4.370529      0.781669      1.391988
  C       4.158618     -0.681561      2.441251
  C       2.759520     -0.080384     -0.721775
  C       3.888467     -0.955898     -1.196276
  C       1.548239     -0.070802     -1.419615
  H      -4.103906      3.560766      0.742830
  H      -2.430036      4.170056      0.607985
  H      -3.702586      4.808373     -0.466978
  H      -2.241346      3.164361     -1.681162
  H      -3.921111      2.574923     -1.575425
  H      -2.316413     -0.470609      1.014087
  H      -1.023373     -2.115578     -1.106724
  H      -3.418260     -2.717725     -0.865201
  H      -3.185204     -3.019403      0.878500
  H      -2.376551     -4.062574     -0.321632
  H       0.439185     -1.799867      0.860822
  H      -0.083539     -3.504144      0.751190
  H      -0.842275     -2.416160      1.940735
  H      -0.236557      2.171169      0.432164
  H       1.903787      2.165455      1.709074
  H       5.033958     -0.720559      3.104461
  H       4.123355     -1.603183      1.844076
  H       3.247721     -0.595157      3.049184
  H       3.666702     -1.379387     -2.184900
  H       4.058586     -1.792602     -0.500538
  H       4.829557     -0.390493     -1.253165
  H       1.418210     -0.696134     -2.306443
