18
Coordinates from ORCA-job opt E -749.674597961798
  C          -1.86280756713786      0.12112992085232      1.33716740777908
  C          -1.11678234692577     -0.17079710026619      0.05171493516088
  C          -1.60456265032876      0.62763234204687     -1.14200129321785
  O           0.28119212902982      0.15856544094889      0.28933777712702
  P           1.45546522201469     -0.75473029191337     -0.28372904395894
  C           2.91925516856635      0.21801567822394     -0.02274756941078
  O           1.22715237379167     -1.36730369694034     -1.61394208503434
  F           1.58064023492583     -1.89525029131847      0.83897388507129
  H          -1.45433236678174     -0.47572478892765      2.16505489345474
  H          -1.78009559584533      1.18782919338447      1.59601212570243
  H          -2.92734912291896     -0.12753900393374      1.21873722292528
  H          -1.18030298721478     -1.24790901342972     -0.17594788606941
  H          -2.66165937086323      0.40012770537474     -1.34305729569611
  H          -1.01801894376310      0.37442218413587     -2.03652172286217
  H          -1.50874244382636      1.70680494099253     -0.94759543848907
  H           2.96108483938558      0.55716395436271      1.02034800803067
  H           2.89105843723943      1.08480485947575     -0.69663407819610
  H           3.79880500065252     -0.39724203306860     -0.25516986231665
