18
Coordinates from ORCA-job opt E -749.667758680567
  C      -1.814356      0.141417      1.326572
  C      -1.059588     -0.162674      0.041099
  C      -1.661156      0.581196     -1.141759
  O       0.285679      0.266756      0.211173
  P       1.453588     -0.746294     -0.262636
  C       2.940924      0.185284      0.018662
  O       1.279082     -1.227663     -1.672894
  F       1.288302     -1.941028      0.743956
  H      -1.355178     -0.385026      2.170374
  H      -1.774192      1.210320      1.563958
  H      -2.862794     -0.163282      1.254373
  H      -1.093578     -1.242304     -0.145349
  H      -2.705400      0.295883     -1.301314
  H      -1.098726      0.367097     -2.056577
  H      -1.612135      1.665273     -0.990589
  H       3.003261      0.503773      1.062834
  H       2.965906      1.075421     -0.615834
  H       3.820361     -0.424149     -0.206050
18
Coordinates from ORCA-job opt E -749.672038800893
  C      -1.809212      0.132816      1.332031
  C      -1.078973     -0.149228      0.029340
  C      -1.677173      0.599132     -1.151564
  O       0.290462      0.262621      0.195334
  P       1.460607     -0.741325     -0.278238
  C       2.944923      0.181684      0.026828
  O       1.303710     -1.282207     -1.660877
  F       1.345030     -1.906003      0.783255
  H      -1.341180     -0.416967      2.163079
  H      -1.763848      1.204925      1.578561
  H      -2.863816     -0.168507      1.263345
  H      -1.117273     -1.232937     -0.171298
  H      -2.727275      0.313580     -1.307042
  H      -1.115403      0.380002     -2.071967
  H      -1.628898      1.686372     -0.984770
  H       2.993219      0.515068      1.073410
  H       2.960506      1.060770     -0.629801
  H       3.824594     -0.439796     -0.189626
18
Coordinates from ORCA-job opt E -749.674261094398
  C      -1.793782      0.128260      1.337788
  C      -1.101414     -0.139228      0.016999
  C      -1.689609      0.613051     -1.160814
  O       0.290298      0.254779      0.171850
  P       1.459514     -0.729943     -0.309028
  C       2.939621      0.178798      0.043083
  O       1.318854     -1.328805     -1.657517
  F       1.411420     -1.862404      0.813753
  H      -1.315736     -0.442139      2.148405
  H      -1.741713      1.200629      1.586661
  H      -2.851762     -0.167289      1.278406
  H      -1.137144     -1.222989     -0.195175
  H      -2.742151      0.328811     -1.308588
  H      -1.132231      0.381812     -2.080941
  H      -1.640831      1.699375     -0.981882
  H       2.961123      0.514380      1.088994
  H       2.953304      1.049212     -0.627921
  H       3.812238     -0.456310     -0.164074
18
Coordinates from ORCA-job opt E -749.674426005518
  C      -1.798104      0.121446      1.335719
  C      -1.105725     -0.141872      0.014659
  C      -1.684282      0.623396     -1.159127
  O       0.288933      0.244901      0.176709
  P       1.458398     -0.733254     -0.303928
  C       2.938702      0.184002      0.035221
  O       1.306850     -1.354016     -1.639770
  F       1.436701     -1.853754      0.839072
  H      -1.322911     -0.455445      2.142178
  H      -1.745411      1.191819      1.589206
  H      -2.856282     -0.171507      1.272301
  H      -1.141732     -1.222991     -0.205643
  H      -2.738064      0.346791     -1.310291
  H      -1.127155      0.391607     -2.078207
  H      -1.629151      1.707473     -0.973704
  H       2.957875      0.526739      1.077616
  H       2.952184      1.048600     -0.643145
  H       3.809176     -0.453935     -0.168867
18
Coordinates from ORCA-job opt E -749.674535569610
  C      -1.809345      0.111005      1.332194
  C      -1.109704     -0.147208      0.013757
  C      -1.672413      0.637816     -1.154772
  O       0.286502      0.229564      0.189786
  P       1.456989     -0.739989     -0.291156
  C       2.937589      0.192973      0.018072
  O       1.284735     -1.387840     -1.611416
  F       1.471493     -1.846534      0.873694
  H      -1.340217     -0.472918      2.136449
  H      -1.757308      1.178947      1.592765
  H      -2.867404     -0.179403      1.260192
  H      -1.147041     -1.224578     -0.218407
  H      -2.728006      0.373916     -1.313952
  H      -1.113606      0.407269     -2.072666
  H      -1.606838      1.718858     -0.959866
  H       2.955878      0.547599      1.055917
  H       2.952404      1.049054     -0.670265
  H       3.806291     -0.448531     -0.180324
18
Coordinates from ORCA-job opt E -749.674551102181
  C      -1.815456      0.107264      1.331203
  C      -1.110626     -0.149148      0.014995
  C      -1.666251      0.642346     -1.152703
  O       0.285504      0.223365      0.197605
  P       1.456874     -0.742926     -0.285571
  C       2.936610      0.196459      0.009757
  O       1.275784     -1.398274     -1.601677
  F       1.485830     -1.845806      0.883650
  H      -1.349658     -0.478432      2.136331
  H      -1.763718      1.174643      1.594430
  H      -2.873443     -0.182351      1.254841
  H      -1.149537     -1.225496     -0.221324
  H      -2.722561      0.383907     -1.316367
  H      -1.105682      0.412735     -2.069977
  H      -1.596231      1.722527     -0.954264
  H       2.954725      0.556212      1.046173
  H       2.952293      1.049146     -0.682415
  H       3.805544     -0.446172     -0.184690
18
Coordinates from ORCA-job opt E -749.674561065213
  C      -1.821752      0.104285      1.330769
  C      -1.111396     -0.150728      0.017241
  C      -1.659491      0.645669     -1.150765
  O       0.284639      0.217049      0.206717
  P       1.456990     -0.745828     -0.281071
  C       2.934834      0.199516      0.001724
  O       1.267770     -1.406000     -1.594383
  F       1.500706     -1.845886      0.889934
  H      -1.360283     -0.483232      2.137307
  H      -1.769341      1.171177      1.596520
  H      -2.879864     -0.183681      1.249550
  H      -1.152670     -1.226376     -0.222395
  H      -2.716365      0.392543     -1.319479
  H      -1.096441      0.416720     -2.066895
  H      -1.585263      1.725164     -0.949192
  H       2.952727      0.564357      1.036734
  H       2.950524      1.048825     -0.694338
  H       3.804678     -0.443573     -0.187979
18
Coordinates from ORCA-job opt E -749.674567177659
  C      -1.826908      0.102837      1.330885
  C      -1.112040     -0.152097      0.019885
  C      -1.653352      0.647238     -1.149298
  O       0.284052      0.211347      0.215259
  P       1.457059     -0.748133     -0.278679
  C       2.932806      0.201795     -0.004096
  O       1.261689     -1.409636     -1.590754
  F       1.513070     -1.846945      0.891873
  H      -1.370186     -0.486627      2.138783
  H      -1.772694      1.169290      1.598421
  H      -2.885422     -0.182404      1.245190
  H      -1.155684     -1.227352     -0.221510
  H      -2.710490      0.398178     -1.322504
  H      -1.087643      0.418052     -2.063787
  H      -1.576025      1.726262     -0.945783
  H       2.950961      0.570114      1.029843
  H       2.946961      1.048756     -0.702932
  H       3.803845     -0.440675     -0.190795
18
Coordinates from ORCA-job opt E -749.674562448847
  C      -1.833522      0.102255      1.331390
  C      -1.112879     -0.154279      0.024001
  C      -1.644893      0.647974     -1.147495
  O       0.283418      0.203298      0.227219
  P       1.456977     -0.750946     -0.276763
  C       2.929971      0.204664     -0.010501
  O       1.254134     -1.411242     -1.588367
  F       1.528269     -1.850004      0.891277
  H      -1.384145     -0.490145      2.141240
  H      -1.775729      1.168128      1.600619
  H      -2.892862     -0.177950      1.239492
  H      -1.159737     -1.229191     -0.218494
  H      -2.702148      0.403667     -1.326657
  H      -1.075236      0.417408     -2.059154
  H      -1.564043      1.726492     -0.942405
  H       2.949601      0.575847      1.022436
  H       2.939994      1.049695     -0.711684
  H       3.802831     -0.435669     -0.196155
18
Coordinates from ORCA-job opt E -749.674578799282
  C      -1.842947      0.103085      1.332389
  C      -1.114061     -0.158028      0.030610
  C      -1.632328      0.647379     -1.145007
  O       0.282608      0.190931      0.245145
  P       1.456660     -0.754624     -0.275098
  C       2.925937      0.208825     -0.018307
  O       1.243693     -1.409818     -1.587483
  F       1.548577     -1.856947      0.886853
  H      -1.405176     -0.493483      2.145455
  H      -1.778932      1.168243      1.602966
  H      -2.903684     -0.168545      1.231398
  H      -1.165622     -1.232659     -0.212045
  H      -2.689542      0.409331     -1.332585
  H      -1.056763      0.413502     -2.052013
  H      -1.546812      1.725346     -0.938944
  H       2.949248      0.581235      1.014083
  H       2.927609      1.053088     -0.720475
  H       3.801535     -0.426862     -0.206943
18
Coordinates from ORCA-job opt E -749.674582221926
  C      -1.857508      0.107162      1.334346
  C      -1.115923     -0.164953      0.042148
  C      -1.611895      0.643467     -1.141255
  O       0.281366      0.169768      0.274348
  P       1.455925     -0.759653     -0.274329
  C       2.919389      0.215657     -0.028431
  O       1.227999     -1.401445     -1.590446
  F       1.578548     -1.872067      0.873413
  H      -1.439472     -0.495242      2.153349
  H      -1.782073      1.171461      1.605102
  H      -2.920578     -0.149177      1.219055
  H      -1.175529     -1.239524     -0.198451
  H      -2.668904      0.415047     -1.341491
  H      -1.027267      0.401946     -2.040294
  H      -1.518750      1.720883     -0.935912
  H       2.950422      0.584707      1.004864
  H       2.904889      1.062344     -0.727599
  H       3.799361     -0.410382     -0.228417
18
Coordinates from ORCA-job opt E -749.674588734075
  C      -1.861939      0.111601      1.335460
  C      -1.116452     -0.168017      0.047086
  C      -1.605364      0.638688     -1.140567
  O       0.281166      0.162101      0.284814
  P       1.455619     -0.759910     -0.276275
  C       2.917913      0.217757     -0.028974
  O       1.224222     -1.390913     -1.596778
  F       1.585041     -1.881475      0.862030
  H      -1.451533     -0.491671      2.157627
  H      -1.781337      1.176065      1.603834
  H      -2.926034     -0.138318      1.215672
  H      -1.178873     -1.243158     -0.189861
  H      -2.662222      0.412332     -1.343917
  H      -1.018073      0.392379     -2.036491
  H      -1.510150      1.716419     -0.938174
  H       2.954024      0.579333      1.006700
  H       2.894971      1.069600     -0.721759
  H       3.799020     -0.402814     -0.240428
18
Coordinates from ORCA-job opt E -749.674598884518
  C      -1.860871      0.116958      1.336155
  C      -1.116282     -0.168997      0.048500
  C      -1.607094      0.632639     -1.141861
  O       0.281572      0.162397      0.284831
  P       1.455630     -0.756688     -0.280190
  C       2.919974      0.217018     -0.023614
  O       1.227874     -1.377418     -1.606204
  F       1.577587     -1.888667      0.850730
  H      -1.450778     -0.483393      2.160634
  H      -1.779143      1.182552      1.599484
  H      -2.925299     -0.132248      1.217831
  H      -1.178131     -1.245293     -0.183036
  H      -2.663915      0.403624     -1.342486
  H      -1.020915      0.382965     -2.037558
  H      -1.513265      1.711330     -0.944288
  H       2.960384      0.566133      1.016106
  H       2.892757      1.077280     -0.705929
  H       3.799914     -0.400190     -0.249106
18
Coordinates from ORCA-job opt E -749.674596252078
  C      -1.863445      0.119127      1.336725
  C      -1.116740     -0.170645      0.051146
  C      -1.603486      0.630202     -1.141412
  O       0.281222      0.158089      0.290134
  P       1.455425     -0.756522     -0.281327
  C       2.918886      0.218349     -0.024577
  O       1.225606     -1.372637     -1.609371
  F       1.582484     -1.893240      0.844666
  H      -1.456399     -0.480435      2.163319
  H      -1.779954      1.185071      1.598215
  H      -2.928156     -0.128038      1.216642
  H      -1.180270     -1.247233     -0.178678
  H      -2.660413      0.403086     -1.343711
  H      -1.016187      0.378173     -2.035750
  H      -1.507772      1.708997     -0.945147
  H       2.960986      0.562727      1.016721
  H       2.889146      1.081730     -0.702808
  H       3.799068     -0.396800     -0.254786
18
Coordinates from ORCA-job opt E -749.674597961798
  C      -1.862808      0.121130      1.337167
  C      -1.116782     -0.170797      0.051715
  C      -1.604563      0.627632     -1.142001
  O       0.281192      0.158565      0.289338
  P       1.455465     -0.754730     -0.283729
  C       2.919255      0.218016     -0.022748
  O       1.227152     -1.367304     -1.613942
  F       1.580640     -1.895250      0.838974
  H      -1.454332     -0.475725      2.165055
  H      -1.780096      1.187829      1.596012
  H      -2.927349     -0.127539      1.218737
  H      -1.180303     -1.247909     -0.175948
  H      -2.661659      0.400128     -1.343057
  H      -1.018019      0.374422     -2.036522
  H      -1.508742      1.706805     -0.947595
  H       2.961085      0.557164      1.020348
  H       2.891058      1.084805     -0.696634
  H       3.798805     -0.397242     -0.255170
